LAMMPS data file for Materials Studio Generated CAR File (force field Dreiding.params+b)

6486  atoms
4524  bonds
3072  angles
1740  dihedrals
360  impropers

8  atom types
5  bond types
8  angle types
7  dihedral types
3  improper types

0.000000 25.502700 xlo xhi
0.000000 29.448000 ylo yhi
0 87.576096 zlo zhi

Masses

1	14.0067	#	N
2	12.0107	#	C
3	1.00794	#	H
4	15.9994	#	OW
5	1.00794	#	HW
6	6.941	#	Li
7	35.4527	#	Cl
8	24.305	#	Mg

Pair Coeffs

1	0.0774	3.26256	#	N_2
2	0.0951	3.47299	#	C_R
3	0.0152	4.346421	#	H_
4	0.1553	3.166	#	ow
5	0	0	#	Hw
6	0.3367344	1.409401772	#	Li
7	0.012785	4.83045285	#	Cl
8	0.01020237	2.423244513	#	Mg

Bond Coeffs

1   700.000000 1.305000     # N_2 C_R
2   700.000000 1.220000     # N_2 N_2
3   350.000000 1.020000     # C_R H_
4   525.000000 1.390000     # C_R C_R
5 554.135 1 #O-H in water

Angle Coeffs

1   50.000000 120.000000     # X N_2 X (C_R N_2 N_2)
2   50.000000 120.000000     # X C_R X (N_2 C_R H_)
3   50.000000 120.000000     # X C_R X (N_2 C_R C_R)
4   50.000000 120.000000     # X C_R X (H_ C_R C_R)
5   50.000000 120.000000     # X C_R X (C_R C_R C_R)
6   50.000000 120.000000     # X C_R X (C_R C_R H_)
7   50.000000 120.000000     # X N_2 X (N_2 N_2 C_R)
8 50.000000 109.47 # X O_3 X (H__HB O_3 H__HB)

Dihedral Coeffs

1   3.125000 2 -180 0.0     # X N_2 C_R X (N_2 N_2 C_R H_)
2   3.125000 2 -180 0.0     # X N_2 C_R X (N_2 N_2 C_R C_R)
3   5.625000 2 -180 0.0     # X N_2 N_2 X (C_R N_2 N_2 C_R)
4   3.125000 2 -180 0.0     # X C_R C_R X (N_2 C_R C_R C_R)
5   3.125000 2 -180 0.0     # X C_R C_R X (H_ C_R C_R C_R)
6   3.125000 2 -180 0.0     # X C_R C_R X (C_R C_R C_R C_R)
7   3.125000 2 -180 0.0     # X C_R C_R X (C_R C_R C_R H_)

Improper Coeffs

1   20.000000 0.000000     # X C_R X X
2   20.000000 0.000000     # X C_R X X
3   20.000000 0.000000     # X C_R X X

Atoms

1	1	1	-0.1286	0.635777	7.60068	39.803101		
2	1	2	0.09165	1.5115	6.65567	39.803101		
3	1	3	0.06445	1.21285	5.59592	39.803101		
4	1	2	-0.0468	2.90316	7.01098	39.803101		
5	1	2	-0.0167	3.27978	8.36275	39.803101		
6	1	3	0.061	3.59996	4.96307	39.803101		
7	1	1	-0.1286	5.85109	4.11226	39.803101		
8	1	2	0.09165	6.23163	5.34316	39.803101		
9	1	3	0.06445	7.29873	5.6144	39.803101		
10	1	2	-0.0468	5.22809	6.37072	39.803101		
11	1	2	-0.0167	3.86911	6.021	39.803101		
12	1	3	0.061	6.65323	7.99812	39.803101		
13	1	1	-0.1286	6.26449	10.3731	39.803101		
14	1	2	0.09165	5.00823	10.0872	39.803101		
15	1	3	0.06445	4.23978	10.8757	39.803101		
16	1	2	-0.0468	4.62011	8.7043	39.803101		
17	1	2	-0.0167	5.60246	7.70225	39.803101		
18	1	3	0.061	2.49817	9.12481	39.803101		
19	1	1	-0.1286	12.1156	29.209299	39.803101		
20	1	2	0.09165	11.2399	0.706328	39.803101		
21	1	3	0.06445	11.5385	1.76608	39.803101		
22	1	2	-0.0468	9.8482	0.351018	39.803101		
23	1	2	-0.0167	9.47158	28.4473	39.803101		
24	1	3	0.061	9.1514	2.39893	39.803101		
25	1	1	-0.1286	6.90027	3.24974	39.803101		
26	1	2	0.09165	6.51973	2.01884	39.803101		
27	1	3	0.06445	5.45263	1.7476	39.803101		
28	1	2	-0.0468	7.52327	0.991282	39.803101		
29	1	2	-0.0167	8.88224	1.341	39.803101		
30	1	3	0.061	6.09813	28.811899	39.803101		
31	1	1	-0.1286	6.48687	26.436899	39.803101		
32	1	2	0.09165	7.74313	26.722799	39.803101		
33	1	3	0.06445	8.51157	25.934299	39.803101		
34	1	2	-0.0468	8.13125	28.1057	39.803101		
35	1	2	-0.0167	7.1489	29.1077	39.803101		
36	1	3	0.061	10.2532	27.6852	39.803101		
37	1	1	-0.1286	13.3871	0.238675	39.803101		
38	1	2	0.09165	14.2629	28.741699	39.803101		
39	1	3	0.06445	13.9642	27.6819	39.803101		
40	1	2	-0.0468	15.6545	29.097	39.803101		
41	1	2	-0.0167	16.031099	1.00075	39.803101		
42	1	3	0.061	16.351299	27.049101	39.803101		
43	1	1	-0.1286	18.6024	26.198299	39.803101		
44	1	2	0.09165	18.983	27.429199	39.803101		
45	1	3	0.06445	20.0501	27.700399	39.803101		
46	1	2	-0.0468	17.979401	28.456699	39.803101		
47	1	2	-0.0167	16.620501	28.107	39.803101		
48	1	3	0.061	19.4046	0.636121	39.803101		
49	1	1	-0.1286	19.0158	3.01106	39.803101		
50	1	2	0.09165	17.7596	2.72516	39.803101		
51	1	3	0.06445	16.9911	3.51368	39.803101		
52	1	2	-0.0468	17.3715	1.3423	39.803101		
53	1	2	-0.0167	18.3538	0.340251	39.803101		
54	1	3	0.061	15.2495	1.76281	39.803101		
55	1	1	-0.1286	24.866899	21.8473	39.803101		
56	1	2	0.09165	23.991199	22.792299	39.803101		
57	1	3	0.06445	24.2899	23.8521	39.803101		
58	1	2	-0.0468	22.5996	22.437	39.803101		
59	1	2	-0.0167	22.2229	21.0853	39.803101		
60	1	3	0.061	21.9028	24.4849	39.803101		
61	1	1	-0.1286	19.6516	25.335699	39.803101		
62	1	2	0.09165	19.271099	24.104799	39.803101		
63	1	3	0.06445	18.204	23.833599	39.803101		
64	1	2	-0.0468	20.274599	23.077299	39.803101		
65	1	2	-0.0167	21.6336	23.427	39.803101		
66	1	3	0.061	18.849501	21.4499	39.803101		
67	1	1	-0.1286	19.238199	19.0749	39.803101		
68	1	2	0.09165	20.494499	19.3608	39.803101		
69	1	3	0.06445	21.262899	18.5723	39.803101		
70	1	2	-0.0468	20.882601	20.7437	39.803101		
71	1	2	-0.0167	19.900299	21.745701	39.803101		
72	1	3	0.061	23.004499	20.3232	39.803101		
73	1	1	-0.1286	0.635777	22.324699	39.803101		
74	1	2	0.09165	1.5115	21.3797	39.803101		
75	1	3	0.06445	1.21285	20.319901	39.803101		
76	1	2	-0.0468	2.90316	21.735001	39.803101		
77	1	2	-0.0167	3.27978	23.0867	39.803101		
78	1	3	0.061	3.59996	19.687099	39.803101		
79	1	1	-0.1286	5.85109	18.8363	39.803101		
80	1	2	0.09165	6.23163	20.0672	39.803101		
81	1	3	0.06445	7.29873	20.3384	39.803101		
82	1	2	-0.0468	5.22809	21.0947	39.803101		
83	1	2	-0.0167	3.86911	20.745001	39.803101		
84	1	3	0.061	6.65323	22.722099	39.803101		
85	1	1	-0.1286	6.26449	25.097099	39.803101		
86	1	2	0.09165	5.00823	24.811199	39.803101		
87	1	3	0.06445	4.23978	25.599701	39.803101		
88	1	2	-0.0468	4.62011	23.428301	39.803101		
89	1	2	-0.0167	5.60246	22.4263	39.803101		
90	1	3	0.061	2.49817	23.848801	39.803101		
91	1	1	-0.1286	12.1156	14.4853	39.803101		
92	1	2	0.09165	11.2399	15.4303	39.803101		
93	1	3	0.06445	11.5385	16.490101	39.803101		
94	1	2	-0.0468	9.8482	15.075	39.803101		
95	1	2	-0.0167	9.47158	13.7233	39.803101		
96	1	3	0.061	9.1514	17.1229	39.803101		
97	1	1	-0.1286	6.90027	17.9737	39.803101		
98	1	2	0.09165	6.51973	16.7428	39.803101		
99	1	3	0.06445	5.45263	16.4716	39.803101		
100	1	2	-0.0468	7.52327	15.7153	39.803101		
101	1	2	-0.0167	8.88224	16.065001	39.803101		
102	1	3	0.061	6.09813	14.0879	39.803101		
103	1	1	-0.1286	6.48687	11.7129	39.803101		
104	1	2	0.09165	7.74313	11.9988	39.803101		
105	1	3	0.06445	8.51157	11.2103	39.803101		
106	1	2	-0.0468	8.13125	13.3817	39.803101		
107	1	2	-0.0167	7.1489	14.3837	39.803101		
108	1	3	0.061	10.2532	12.9612	39.803101		
109	1	1	-0.1286	13.3871	14.9627	39.803101		
110	1	2	0.09165	14.2629	14.0177	39.803101		
111	1	3	0.06445	13.9642	12.9579	39.803101		
112	1	2	-0.0468	15.6545	14.373	39.803101		
113	1	2	-0.0167	16.031099	15.7247	39.803101		
114	1	3	0.061	16.351299	12.3251	39.803101		
115	1	1	-0.1286	18.6024	11.4743	39.803101		
116	1	2	0.09165	18.983	12.7052	39.803101		
117	1	3	0.06445	20.0501	12.9764	39.803101		
118	1	2	-0.0468	17.979401	13.7327	39.803101		
119	1	2	-0.0167	16.620501	13.383	39.803101		
120	1	3	0.061	19.4046	15.3601	39.803101		
121	1	1	-0.1286	19.0158	17.7351	39.803101		
122	1	2	0.09165	17.7596	17.4492	39.803101		
123	1	3	0.06445	16.9911	18.2377	39.803101		
124	1	2	-0.0468	17.3715	16.066299	39.803101		
125	1	2	-0.0167	18.3538	15.0643	39.803101		
126	1	3	0.061	15.2495	16.486799	39.803101		
127	1	1	-0.1286	24.866899	7.12332	39.803101		
128	1	2	0.09165	23.991199	8.06833	39.803101		
129	1	3	0.06445	24.2899	9.12808	39.803101		
130	1	2	-0.0468	22.5996	7.71302	39.803101		
131	1	2	-0.0167	22.2229	6.36125	39.803101		
132	1	3	0.061	21.9028	9.76093	39.803101		
133	1	1	-0.1286	19.6516	10.6117	39.803101		
134	1	2	0.09165	19.271099	9.38084	39.803101		
135	1	3	0.06445	18.204	9.1096	39.803101		
136	1	2	-0.0468	20.274599	8.35328	39.803101		
137	1	2	-0.0167	21.6336	8.703	39.803101		
138	1	3	0.061	18.849501	6.72588	39.803101		
139	1	1	-0.1286	19.238199	4.35094	39.803101		
140	1	2	0.09165	20.494499	4.63684	39.803101		
141	1	3	0.06445	21.262899	3.84832	39.803101		
142	1	2	-0.0468	20.882601	6.0197	39.803101		
143	1	2	-0.0167	19.900299	7.02175	39.803101		
144	1	3	0.061	23.004499	5.59919	39.803101		
145	2	1	-0.1286	0.635777	7.60068	43.113098		
146	2	2	0.09165	1.5115	6.65567	43.113098		
147	2	3	0.06445	1.21285	5.59592	43.113098		
148	2	2	-0.0468	2.90316	7.01098	43.113098		
149	2	2	-0.0167	3.27978	8.36275	43.113098		
150	2	3	0.061	3.59996	4.96307	43.113098		
151	2	1	-0.1286	5.85109	4.11226	43.113098		
152	2	2	0.09165	6.23163	5.34316	43.113098		
153	2	3	0.06445	7.29873	5.6144	43.113098		
154	2	2	-0.0468	5.22809	6.37072	43.113098		
155	2	2	-0.0167	3.86911	6.021	43.113098		
156	2	3	0.061	6.65323	7.99812	43.113098		
157	2	1	-0.1286	6.26449	10.3731	43.113098		
158	2	2	0.09165	5.00823	10.0872	43.113098		
159	2	3	0.06445	4.23978	10.8757	43.113098		
160	2	2	-0.0468	4.62011	8.7043	43.113098		
161	2	2	-0.0167	5.60246	7.70225	43.113098		
162	2	3	0.061	2.49817	9.12481	43.113098		
163	2	1	-0.1286	12.1156	29.209299	43.113098		
164	2	2	0.09165	11.2399	0.706328	43.113098		
165	2	3	0.06445	11.5385	1.76608	43.113098		
166	2	2	-0.0468	9.8482	0.351018	43.113098		
167	2	2	-0.0167	9.47158	28.4473	43.113098		
168	2	3	0.061	9.1514	2.39893	43.113098		
169	2	1	-0.1286	6.90027	3.24974	43.113098		
170	2	2	0.09165	6.51973	2.01884	43.113098		
171	2	3	0.06445	5.45263	1.7476	43.113098		
172	2	2	-0.0468	7.52327	0.991282	43.113098		
173	2	2	-0.0167	8.88224	1.341	43.113098		
174	2	3	0.061	6.09813	28.811899	43.113098		
175	2	1	-0.1286	6.48687	26.436899	43.113098		
176	2	2	0.09165	7.74313	26.722799	43.113098		
177	2	3	0.06445	8.51157	25.934299	43.113098		
178	2	2	-0.0468	8.13125	28.1057	43.113098		
179	2	2	-0.0167	7.1489	29.1077	43.113098		
180	2	3	0.061	10.2532	27.6852	43.113098		
181	2	1	-0.1286	13.3871	0.238675	43.113098		
182	2	2	0.09165	14.2629	28.741699	43.113098		
183	2	3	0.06445	13.9642	27.6819	43.113098		
184	2	2	-0.0468	15.6545	29.097	43.113098		
185	2	2	-0.0167	16.031099	1.00075	43.113098		
186	2	3	0.061	16.351299	27.049101	43.113098		
187	2	1	-0.1286	18.6024	26.198299	43.113098		
188	2	2	0.09165	18.983	27.429199	43.113098		
189	2	3	0.06445	20.0501	27.700399	43.113098		
190	2	2	-0.0468	17.979401	28.456699	43.113098		
191	2	2	-0.0167	16.620501	28.107	43.113098		
192	2	3	0.061	19.4046	0.636121	43.113098		
193	2	1	-0.1286	19.0158	3.01106	43.113098		
194	2	2	0.09165	17.7596	2.72516	43.113098		
195	2	3	0.06445	16.9911	3.51368	43.113098		
196	2	2	-0.0468	17.3715	1.3423	43.113098		
197	2	2	-0.0167	18.3538	0.340251	43.113098		
198	2	3	0.061	15.2495	1.76281	43.113098		
199	2	1	-0.1286	24.866899	21.8473	43.113098		
200	2	2	0.09165	23.991199	22.792299	43.113098		
201	2	3	0.06445	24.2899	23.8521	43.113098		
202	2	2	-0.0468	22.5996	22.437	43.113098		
203	2	2	-0.0167	22.2229	21.0853	43.113098		
204	2	3	0.061	21.9028	24.4849	43.113098		
205	2	1	-0.1286	19.6516	25.335699	43.113098		
206	2	2	0.09165	19.271099	24.104799	43.113098		
207	2	3	0.06445	18.204	23.833599	43.113098		
208	2	2	-0.0468	20.274599	23.077299	43.113098		
209	2	2	-0.0167	21.6336	23.427	43.113098		
210	2	3	0.061	18.849501	21.4499	43.113098		
211	2	1	-0.1286	19.238199	19.0749	43.113098		
212	2	2	0.09165	20.494499	19.3608	43.113098		
213	2	3	0.06445	21.262899	18.5723	43.113098		
214	2	2	-0.0468	20.882601	20.7437	43.113098		
215	2	2	-0.0167	19.900299	21.745701	43.113098		
216	2	3	0.061	23.004499	20.3232	43.113098		
217	2	1	-0.1286	0.635777	22.324699	43.113098		
218	2	2	0.09165	1.5115	21.3797	43.113098		
219	2	3	0.06445	1.21285	20.319901	43.113098		
220	2	2	-0.0468	2.90316	21.735001	43.113098		
221	2	2	-0.0167	3.27978	23.0867	43.113098		
222	2	3	0.061	3.59996	19.687099	43.113098		
223	2	1	-0.1286	5.85109	18.8363	43.113098		
224	2	2	0.09165	6.23163	20.0672	43.113098		
225	2	3	0.06445	7.29873	20.3384	43.113098		
226	2	2	-0.0468	5.22809	21.0947	43.113098		
227	2	2	-0.0167	3.86911	20.745001	43.113098		
228	2	3	0.061	6.65323	22.722099	43.113098		
229	2	1	-0.1286	6.26449	25.097099	43.113098		
230	2	2	0.09165	5.00823	24.811199	43.113098		
231	2	3	0.06445	4.23978	25.599701	43.113098		
232	2	2	-0.0468	4.62011	23.428301	43.113098		
233	2	2	-0.0167	5.60246	22.4263	43.113098		
234	2	3	0.061	2.49817	23.848801	43.113098		
235	2	1	-0.1286	12.1156	14.4853	43.113098		
236	2	2	0.09165	11.2399	15.4303	43.113098		
237	2	3	0.06445	11.5385	16.490101	43.113098		
238	2	2	-0.0468	9.8482	15.075	43.113098		
239	2	2	-0.0167	9.47158	13.7233	43.113098		
240	2	3	0.061	9.1514	17.1229	43.113098		
241	2	1	-0.1286	6.90027	17.9737	43.113098		
242	2	2	0.09165	6.51973	16.7428	43.113098		
243	2	3	0.06445	5.45263	16.4716	43.113098		
244	2	2	-0.0468	7.52327	15.7153	43.113098		
245	2	2	-0.0167	8.88224	16.065001	43.113098		
246	2	3	0.061	6.09813	14.0879	43.113098		
247	2	1	-0.1286	6.48687	11.7129	43.113098		
248	2	2	0.09165	7.74313	11.9988	43.113098		
249	2	3	0.06445	8.51157	11.2103	43.113098		
250	2	2	-0.0468	8.13125	13.3817	43.113098		
251	2	2	-0.0167	7.1489	14.3837	43.113098		
252	2	3	0.061	10.2532	12.9612	43.113098		
253	2	1	-0.1286	13.3871	14.9627	43.113098		
254	2	2	0.09165	14.2629	14.0177	43.113098		
255	2	3	0.06445	13.9642	12.9579	43.113098		
256	2	2	-0.0468	15.6545	14.373	43.113098		
257	2	2	-0.0167	16.031099	15.7247	43.113098		
258	2	3	0.061	16.351299	12.3251	43.113098		
259	2	1	-0.1286	18.6024	11.4743	43.113098		
260	2	2	0.09165	18.983	12.7052	43.113098		
261	2	3	0.06445	20.0501	12.9764	43.113098		
262	2	2	-0.0468	17.979401	13.7327	43.113098		
263	2	2	-0.0167	16.620501	13.383	43.113098		
264	2	3	0.061	19.4046	15.3601	43.113098		
265	2	1	-0.1286	19.0158	17.7351	43.113098		
266	2	2	0.09165	17.7596	17.4492	43.113098		
267	2	3	0.06445	16.9911	18.2377	43.113098		
268	2	2	-0.0468	17.3715	16.066299	43.113098		
269	2	2	-0.0167	18.3538	15.0643	43.113098		
270	2	3	0.061	15.2495	16.486799	43.113098		
271	2	1	-0.1286	24.866899	7.12332	43.113098		
272	2	2	0.09165	23.991199	8.06833	43.113098		
273	2	3	0.06445	24.2899	9.12808	43.113098		
274	2	2	-0.0468	22.5996	7.71302	43.113098		
275	2	2	-0.0167	22.2229	6.36125	43.113098		
276	2	3	0.061	21.9028	9.76093	43.113098		
277	2	1	-0.1286	19.6516	10.6117	43.113098		
278	2	2	0.09165	19.271099	9.38084	43.113098		
279	2	3	0.06445	18.204	9.1096	43.113098		
280	2	2	-0.0468	20.274599	8.35328	43.113098		
281	2	2	-0.0167	21.6336	8.703	43.113098		
282	2	3	0.061	18.849501	6.72588	43.113098		
283	2	1	-0.1286	19.238199	4.35094	43.113098		
284	2	2	0.09165	20.494499	4.63684	43.113098		
285	2	3	0.06445	21.262899	3.84832	43.113098		
286	2	2	-0.0468	20.882601	6.0197	43.113098		
287	2	2	-0.0167	19.900299	7.02175	43.113098		
288	2	3	0.061	23.004499	5.59919	43.113098		
289	3	1	-0.1286	0.635777	7.60068	46.423104		
290	3	2	0.09165	1.5115	6.65567	46.423104		
291	3	3	0.06445	1.21285	5.59592	46.423104		
292	3	2	-0.0468	2.90316	7.01098	46.423104		
293	3	2	-0.0167	3.27978	8.36275	46.423104		
294	3	3	0.061	3.59996	4.96307	46.423104		
295	3	1	-0.1286	5.85109	4.11226	46.423104		
296	3	2	0.09165	6.23163	5.34316	46.423104		
297	3	3	0.06445	7.29873	5.6144	46.423104		
298	3	2	-0.0468	5.22809	6.37072	46.423104		
299	3	2	-0.0167	3.86911	6.021	46.423104		
300	3	3	0.061	6.65323	7.99812	46.423104		
301	3	1	-0.1286	6.26449	10.3731	46.423104		
302	3	2	0.09165	5.00823	10.0872	46.423104		
303	3	3	0.06445	4.23978	10.8757	46.423104		
304	3	2	-0.0468	4.62011	8.7043	46.423104		
305	3	2	-0.0167	5.60246	7.70225	46.423104		
306	3	3	0.061	2.49817	9.12481	46.423104		
307	3	1	-0.1286	12.1156	29.209299	46.423104		
308	3	2	0.09165	11.2399	0.706328	46.423104		
309	3	3	0.06445	11.5385	1.76608	46.423104		
310	3	2	-0.0468	9.8482	0.351018	46.423104		
311	3	2	-0.0167	9.47158	28.4473	46.423104		
312	3	3	0.061	9.1514	2.39893	46.423104		
313	3	1	-0.1286	6.90027	3.24974	46.423104		
314	3	2	0.09165	6.51973	2.01884	46.423104		
315	3	3	0.06445	5.45263	1.7476	46.423104		
316	3	2	-0.0468	7.52327	0.991282	46.423104		
317	3	2	-0.0167	8.88224	1.341	46.423104		
318	3	3	0.061	6.09813	28.811899	46.423104		
319	3	1	-0.1286	6.48687	26.436899	46.423104		
320	3	2	0.09165	7.74313	26.722799	46.423104		
321	3	3	0.06445	8.51157	25.934299	46.423104		
322	3	2	-0.0468	8.13125	28.1057	46.423104		
323	3	2	-0.0167	7.1489	29.1077	46.423104		
324	3	3	0.061	10.2532	27.6852	46.423104		
325	3	1	-0.1286	13.3871	0.238675	46.423104		
326	3	2	0.09165	14.2629	28.741699	46.423104		
327	3	3	0.06445	13.9642	27.6819	46.423104		
328	3	2	-0.0468	15.6545	29.097	46.423104		
329	3	2	-0.0167	16.031099	1.00075	46.423104		
330	3	3	0.061	16.351299	27.049101	46.423104		
331	3	1	-0.1286	18.6024	26.198299	46.423104		
332	3	2	0.09165	18.983	27.429199	46.423104		
333	3	3	0.06445	20.0501	27.700399	46.423104		
334	3	2	-0.0468	17.979401	28.456699	46.423104		
335	3	2	-0.0167	16.620501	28.107	46.423104		
336	3	3	0.061	19.4046	0.636121	46.423104		
337	3	1	-0.1286	19.0158	3.01106	46.423104		
338	3	2	0.09165	17.7596	2.72516	46.423104		
339	3	3	0.06445	16.9911	3.51368	46.423104		
340	3	2	-0.0468	17.3715	1.3423	46.423104		
341	3	2	-0.0167	18.3538	0.340251	46.423104		
342	3	3	0.061	15.2495	1.76281	46.423104		
343	3	1	-0.1286	24.866899	21.8473	46.423104		
344	3	2	0.09165	23.991199	22.792299	46.423104		
345	3	3	0.06445	24.2899	23.8521	46.423104		
346	3	2	-0.0468	22.5996	22.437	46.423104		
347	3	2	-0.0167	22.2229	21.0853	46.423104		
348	3	3	0.061	21.9028	24.4849	46.423104		
349	3	1	-0.1286	19.6516	25.335699	46.423104		
350	3	2	0.09165	19.271099	24.104799	46.423104		
351	3	3	0.06445	18.204	23.833599	46.423104		
352	3	2	-0.0468	20.274599	23.077299	46.423104		
353	3	2	-0.0167	21.6336	23.427	46.423104		
354	3	3	0.061	18.849501	21.4499	46.423104		
355	3	1	-0.1286	19.238199	19.0749	46.423104		
356	3	2	0.09165	20.494499	19.3608	46.423104		
357	3	3	0.06445	21.262899	18.5723	46.423104		
358	3	2	-0.0468	20.882601	20.7437	46.423104		
359	3	2	-0.0167	19.900299	21.745701	46.423104		
360	3	3	0.061	23.004499	20.3232	46.423104		
361	3	1	-0.1286	0.635777	22.324699	46.423104		
362	3	2	0.09165	1.5115	21.3797	46.423104		
363	3	3	0.06445	1.21285	20.319901	46.423104		
364	3	2	-0.0468	2.90316	21.735001	46.423104		
365	3	2	-0.0167	3.27978	23.0867	46.423104		
366	3	3	0.061	3.59996	19.687099	46.423104		
367	3	1	-0.1286	5.85109	18.8363	46.423104		
368	3	2	0.09165	6.23163	20.0672	46.423104		
369	3	3	0.06445	7.29873	20.3384	46.423104		
370	3	2	-0.0468	5.22809	21.0947	46.423104		
371	3	2	-0.0167	3.86911	20.745001	46.423104		
372	3	3	0.061	6.65323	22.722099	46.423104		
373	3	1	-0.1286	6.26449	25.097099	46.423104		
374	3	2	0.09165	5.00823	24.811199	46.423104		
375	3	3	0.06445	4.23978	25.599701	46.423104		
376	3	2	-0.0468	4.62011	23.428301	46.423104		
377	3	2	-0.0167	5.60246	22.4263	46.423104		
378	3	3	0.061	2.49817	23.848801	46.423104		
379	3	1	-0.1286	12.1156	14.4853	46.423104		
380	3	2	0.09165	11.2399	15.4303	46.423104		
381	3	3	0.06445	11.5385	16.490101	46.423104		
382	3	2	-0.0468	9.8482	15.075	46.423104		
383	3	2	-0.0167	9.47158	13.7233	46.423104		
384	3	3	0.061	9.1514	17.1229	46.423104		
385	3	1	-0.1286	6.90027	17.9737	46.423104		
386	3	2	0.09165	6.51973	16.7428	46.423104		
387	3	3	0.06445	5.45263	16.4716	46.423104		
388	3	2	-0.0468	7.52327	15.7153	46.423104		
389	3	2	-0.0167	8.88224	16.065001	46.423104		
390	3	3	0.061	6.09813	14.0879	46.423104		
391	3	1	-0.1286	6.48687	11.7129	46.423104		
392	3	2	0.09165	7.74313	11.9988	46.423104		
393	3	3	0.06445	8.51157	11.2103	46.423104		
394	3	2	-0.0468	8.13125	13.3817	46.423104		
395	3	2	-0.0167	7.1489	14.3837	46.423104		
396	3	3	0.061	10.2532	12.9612	46.423104		
397	3	1	-0.1286	13.3871	14.9627	46.423104		
398	3	2	0.09165	14.2629	14.0177	46.423104		
399	3	3	0.06445	13.9642	12.9579	46.423104		
400	3	2	-0.0468	15.6545	14.373	46.423104		
401	3	2	-0.0167	16.031099	15.7247	46.423104		
402	3	3	0.061	16.351299	12.3251	46.423104		
403	3	1	-0.1286	18.6024	11.4743	46.423104		
404	3	2	0.09165	18.983	12.7052	46.423104		
405	3	3	0.06445	20.0501	12.9764	46.423104		
406	3	2	-0.0468	17.979401	13.7327	46.423104		
407	3	2	-0.0167	16.620501	13.383	46.423104		
408	3	3	0.061	19.4046	15.3601	46.423104		
409	3	1	-0.1286	19.0158	17.7351	46.423104		
410	3	2	0.09165	17.7596	17.4492	46.423104		
411	3	3	0.06445	16.9911	18.2377	46.423104		
412	3	2	-0.0468	17.3715	16.066299	46.423104		
413	3	2	-0.0167	18.3538	15.0643	46.423104		
414	3	3	0.061	15.2495	16.486799	46.423104		
415	3	1	-0.1286	24.866899	7.12332	46.423104		
416	3	2	0.09165	23.991199	8.06833	46.423104		
417	3	3	0.06445	24.2899	9.12808	46.423104		
418	3	2	-0.0468	22.5996	7.71302	46.423104		
419	3	2	-0.0167	22.2229	6.36125	46.423104		
420	3	3	0.061	21.9028	9.76093	46.423104		
421	3	1	-0.1286	19.6516	10.6117	46.423104		
422	3	2	0.09165	19.271099	9.38084	46.423104		
423	3	3	0.06445	18.204	9.1096	46.423104		
424	3	2	-0.0468	20.274599	8.35328	46.423104		
425	3	2	-0.0167	21.6336	8.703	46.423104		
426	3	3	0.061	18.849501	6.72588	46.423104		
427	3	1	-0.1286	19.238199	4.35094	46.423104		
428	3	2	0.09165	20.494499	4.63684	46.423104		
429	3	3	0.06445	21.262899	3.84832	46.423104		
430	3	2	-0.0468	20.882601	6.0197	46.423104		
431	3	2	-0.0167	19.900299	7.02175	46.423104		
432	3	3	0.061	23.004499	5.59919	46.423104		
433	4	1	-0.1286	0.635777	7.60068	49.733101		
434	4	2	0.09165	1.5115	6.65567	49.733101		
435	4	3	0.06445	1.21285	5.59592	49.733101		
436	4	2	-0.0468	2.90316	7.01098	49.733101		
437	4	2	-0.0167	3.27978	8.36275	49.733101		
438	4	3	0.061	3.59996	4.96307	49.733101		
439	4	1	-0.1286	5.85109	4.11226	49.733101		
440	4	2	0.09165	6.23163	5.34316	49.733101		
441	4	3	0.06445	7.29873	5.6144	49.733101		
442	4	2	-0.0468	5.22809	6.37072	49.733101		
443	4	2	-0.0167	3.86911	6.021	49.733101		
444	4	3	0.061	6.65323	7.99812	49.733101		
445	4	1	-0.1286	6.26449	10.3731	49.733101		
446	4	2	0.09165	5.00823	10.0872	49.733101		
447	4	3	0.06445	4.23978	10.8757	49.733101		
448	4	2	-0.0468	4.62011	8.7043	49.733101		
449	4	2	-0.0167	5.60246	7.70225	49.733101		
450	4	3	0.061	2.49817	9.12481	49.733101		
451	4	1	-0.1286	12.1156	29.209299	49.733101		
452	4	2	0.09165	11.2399	0.706328	49.733101		
453	4	3	0.06445	11.5385	1.76608	49.733101		
454	4	2	-0.0468	9.8482	0.351018	49.733101		
455	4	2	-0.0167	9.47158	28.4473	49.733101		
456	4	3	0.061	9.1514	2.39893	49.733101		
457	4	1	-0.1286	6.90027	3.24974	49.733101		
458	4	2	0.09165	6.51973	2.01884	49.733101		
459	4	3	0.06445	5.45263	1.7476	49.733101		
460	4	2	-0.0468	7.52327	0.991282	49.733101		
461	4	2	-0.0167	8.88224	1.341	49.733101		
462	4	3	0.061	6.09813	28.811899	49.733101		
463	4	1	-0.1286	6.48687	26.436899	49.733101		
464	4	2	0.09165	7.74313	26.722799	49.733101		
465	4	3	0.06445	8.51157	25.934299	49.733101		
466	4	2	-0.0468	8.13125	28.1057	49.733101		
467	4	2	-0.0167	7.1489	29.1077	49.733101		
468	4	3	0.061	10.2532	27.6852	49.733101		
469	4	1	-0.1286	13.3871	0.238675	49.733101		
470	4	2	0.09165	14.2629	28.741699	49.733101		
471	4	3	0.06445	13.9642	27.6819	49.733101		
472	4	2	-0.0468	15.6545	29.097	49.733101		
473	4	2	-0.0167	16.031099	1.00075	49.733101		
474	4	3	0.061	16.351299	27.049101	49.733101		
475	4	1	-0.1286	18.6024	26.198299	49.733101		
476	4	2	0.09165	18.983	27.429199	49.733101		
477	4	3	0.06445	20.0501	27.700399	49.733101		
478	4	2	-0.0468	17.979401	28.456699	49.733101		
479	4	2	-0.0167	16.620501	28.107	49.733101		
480	4	3	0.061	19.4046	0.636121	49.733101		
481	4	1	-0.1286	19.0158	3.01106	49.733101		
482	4	2	0.09165	17.7596	2.72516	49.733101		
483	4	3	0.06445	16.9911	3.51368	49.733101		
484	4	2	-0.0468	17.3715	1.3423	49.733101		
485	4	2	-0.0167	18.3538	0.340251	49.733101		
486	4	3	0.061	15.2495	1.76281	49.733101		
487	4	1	-0.1286	24.866899	21.8473	49.733101		
488	4	2	0.09165	23.991199	22.792299	49.733101		
489	4	3	0.06445	24.2899	23.8521	49.733101		
490	4	2	-0.0468	22.5996	22.437	49.733101		
491	4	2	-0.0167	22.2229	21.0853	49.733101		
492	4	3	0.061	21.9028	24.4849	49.733101		
493	4	1	-0.1286	19.6516	25.335699	49.733101		
494	4	2	0.09165	19.271099	24.104799	49.733101		
495	4	3	0.06445	18.204	23.833599	49.733101		
496	4	2	-0.0468	20.274599	23.077299	49.733101		
497	4	2	-0.0167	21.6336	23.427	49.733101		
498	4	3	0.061	18.849501	21.4499	49.733101		
499	4	1	-0.1286	19.238199	19.0749	49.733101		
500	4	2	0.09165	20.494499	19.3608	49.733101		
501	4	3	0.06445	21.262899	18.5723	49.733101		
502	4	2	-0.0468	20.882601	20.7437	49.733101		
503	4	2	-0.0167	19.900299	21.745701	49.733101		
504	4	3	0.061	23.004499	20.3232	49.733101		
505	4	1	-0.1286	0.635777	22.324699	49.733101		
506	4	2	0.09165	1.5115	21.3797	49.733101		
507	4	3	0.06445	1.21285	20.319901	49.733101		
508	4	2	-0.0468	2.90316	21.735001	49.733101		
509	4	2	-0.0167	3.27978	23.0867	49.733101		
510	4	3	0.061	3.59996	19.687099	49.733101		
511	4	1	-0.1286	5.85109	18.8363	49.733101		
512	4	2	0.09165	6.23163	20.0672	49.733101		
513	4	3	0.06445	7.29873	20.3384	49.733101		
514	4	2	-0.0468	5.22809	21.0947	49.733101		
515	4	2	-0.0167	3.86911	20.745001	49.733101		
516	4	3	0.061	6.65323	22.722099	49.733101		
517	4	1	-0.1286	6.26449	25.097099	49.733101		
518	4	2	0.09165	5.00823	24.811199	49.733101		
519	4	3	0.06445	4.23978	25.599701	49.733101		
520	4	2	-0.0468	4.62011	23.428301	49.733101		
521	4	2	-0.0167	5.60246	22.4263	49.733101		
522	4	3	0.061	2.49817	23.848801	49.733101		
523	4	1	-0.1286	12.1156	14.4853	49.733101		
524	4	2	0.09165	11.2399	15.4303	49.733101		
525	4	3	0.06445	11.5385	16.490101	49.733101		
526	4	2	-0.0468	9.8482	15.075	49.733101		
527	4	2	-0.0167	9.47158	13.7233	49.733101		
528	4	3	0.061	9.1514	17.1229	49.733101		
529	4	1	-0.1286	6.90027	17.9737	49.733101		
530	4	2	0.09165	6.51973	16.7428	49.733101		
531	4	3	0.06445	5.45263	16.4716	49.733101		
532	4	2	-0.0468	7.52327	15.7153	49.733101		
533	4	2	-0.0167	8.88224	16.065001	49.733101		
534	4	3	0.061	6.09813	14.0879	49.733101		
535	4	1	-0.1286	6.48687	11.7129	49.733101		
536	4	2	0.09165	7.74313	11.9988	49.733101		
537	4	3	0.06445	8.51157	11.2103	49.733101		
538	4	2	-0.0468	8.13125	13.3817	49.733101		
539	4	2	-0.0167	7.1489	14.3837	49.733101		
540	4	3	0.061	10.2532	12.9612	49.733101		
541	4	1	-0.1286	13.3871	14.9627	49.733101		
542	4	2	0.09165	14.2629	14.0177	49.733101		
543	4	3	0.06445	13.9642	12.9579	49.733101		
544	4	2	-0.0468	15.6545	14.373	49.733101		
545	4	2	-0.0167	16.031099	15.7247	49.733101		
546	4	3	0.061	16.351299	12.3251	49.733101		
547	4	1	-0.1286	18.6024	11.4743	49.733101		
548	4	2	0.09165	18.983	12.7052	49.733101		
549	4	3	0.06445	20.0501	12.9764	49.733101		
550	4	2	-0.0468	17.979401	13.7327	49.733101		
551	4	2	-0.0167	16.620501	13.383	49.733101		
552	4	3	0.061	19.4046	15.3601	49.733101		
553	4	1	-0.1286	19.0158	17.7351	49.733101		
554	4	2	0.09165	17.7596	17.4492	49.733101		
555	4	3	0.06445	16.9911	18.2377	49.733101		
556	4	2	-0.0468	17.3715	16.066299	49.733101		
557	4	2	-0.0167	18.3538	15.0643	49.733101		
558	4	3	0.061	15.2495	16.486799	49.733101		
559	4	1	-0.1286	24.866899	7.12332	49.733101		
560	4	2	0.09165	23.991199	8.06833	49.733101		
561	4	3	0.06445	24.2899	9.12808	49.733101		
562	4	2	-0.0468	22.5996	7.71302	49.733101		
563	4	2	-0.0167	22.2229	6.36125	49.733101		
564	4	3	0.061	21.9028	9.76093	49.733101		
565	4	1	-0.1286	19.6516	10.6117	49.733101		
566	4	2	0.09165	19.271099	9.38084	49.733101		
567	4	3	0.06445	18.204	9.1096	49.733101		
568	4	2	-0.0468	20.274599	8.35328	49.733101		
569	4	2	-0.0167	21.6336	8.703	49.733101		
570	4	3	0.061	18.849501	6.72588	49.733101		
571	4	1	-0.1286	19.238199	4.35094	49.733101		
572	4	2	0.09165	20.494499	4.63684	49.733101		
573	4	3	0.06445	21.262899	3.84832	49.733101		
574	4	2	-0.0468	20.882601	6.0197	49.733101		
575	4	2	-0.0167	19.900299	7.02175	49.733101		
576	4	3	0.061	23.004499	5.59919	49.733101		
577	5	1	-0.1286	0.635777	7.60068	53.043099		
578	5	2	0.09165	1.5115	6.65567	53.043099		
579	5	3	0.06445	1.21285	5.59592	53.043099		
580	5	2	-0.0468	2.90316	7.01098	53.043099		
581	5	2	-0.0167	3.27978	8.36275	53.043099		
582	5	3	0.061	3.59996	4.96307	53.043099		
583	5	1	-0.1286	5.85109	4.11226	53.043099		
584	5	2	0.09165	6.23163	5.34316	53.043099		
585	5	3	0.06445	7.29873	5.6144	53.043099		
586	5	2	-0.0468	5.22809	6.37072	53.043099		
587	5	2	-0.0167	3.86911	6.021	53.043099		
588	5	3	0.061	6.65323	7.99812	53.043099		
589	5	1	-0.1286	6.26449	10.3731	53.043099		
590	5	2	0.09165	5.00823	10.0872	53.043099		
591	5	3	0.06445	4.23978	10.8757	53.043099		
592	5	2	-0.0468	4.62011	8.7043	53.043099		
593	5	2	-0.0167	5.60246	7.70225	53.043099		
594	5	3	0.061	2.49817	9.12481	53.043099		
595	5	1	-0.1286	12.1156	29.209299	53.043099		
596	5	2	0.09165	11.2399	0.706328	53.043099		
597	5	3	0.06445	11.5385	1.76608	53.043099		
598	5	2	-0.0468	9.8482	0.351018	53.043099		
599	5	2	-0.0167	9.47158	28.4473	53.043099		
600	5	3	0.061	9.1514	2.39893	53.043099		
601	5	1	-0.1286	6.90027	3.24974	53.043099		
602	5	2	0.09165	6.51973	2.01884	53.043099		
603	5	3	0.06445	5.45263	1.7476	53.043099		
604	5	2	-0.0468	7.52327	0.991282	53.043099		
605	5	2	-0.0167	8.88224	1.341	53.043099		
606	5	3	0.061	6.09813	28.811899	53.043099		
607	5	1	-0.1286	6.48687	26.436899	53.043099		
608	5	2	0.09165	7.74313	26.722799	53.043099		
609	5	3	0.06445	8.51157	25.934299	53.043099		
610	5	2	-0.0468	8.13125	28.1057	53.043099		
611	5	2	-0.0167	7.1489	29.1077	53.043099		
612	5	3	0.061	10.2532	27.6852	53.043099		
613	5	1	-0.1286	13.3871	0.238675	53.043099		
614	5	2	0.09165	14.2629	28.741699	53.043099		
615	5	3	0.06445	13.9642	27.6819	53.043099		
616	5	2	-0.0468	15.6545	29.097	53.043099		
617	5	2	-0.0167	16.031099	1.00075	53.043099		
618	5	3	0.061	16.351299	27.049101	53.043099		
619	5	1	-0.1286	18.6024	26.198299	53.043099		
620	5	2	0.09165	18.983	27.429199	53.043099		
621	5	3	0.06445	20.0501	27.700399	53.043099		
622	5	2	-0.0468	17.979401	28.456699	53.043099		
623	5	2	-0.0167	16.620501	28.107	53.043099		
624	5	3	0.061	19.4046	0.636121	53.043099		
625	5	1	-0.1286	19.0158	3.01106	53.043099		
626	5	2	0.09165	17.7596	2.72516	53.043099		
627	5	3	0.06445	16.9911	3.51368	53.043099		
628	5	2	-0.0468	17.3715	1.3423	53.043099		
629	5	2	-0.0167	18.3538	0.340251	53.043099		
630	5	3	0.061	15.2495	1.76281	53.043099		
631	5	1	-0.1286	24.866899	21.8473	53.043099		
632	5	2	0.09165	23.991199	22.792299	53.043099		
633	5	3	0.06445	24.2899	23.8521	53.043099		
634	5	2	-0.0468	22.5996	22.437	53.043099		
635	5	2	-0.0167	22.2229	21.0853	53.043099		
636	5	3	0.061	21.9028	24.4849	53.043099		
637	5	1	-0.1286	19.6516	25.335699	53.043099		
638	5	2	0.09165	19.271099	24.104799	53.043099		
639	5	3	0.06445	18.204	23.833599	53.043099		
640	5	2	-0.0468	20.274599	23.077299	53.043099		
641	5	2	-0.0167	21.6336	23.427	53.043099		
642	5	3	0.061	18.849501	21.4499	53.043099		
643	5	1	-0.1286	19.238199	19.0749	53.043099		
644	5	2	0.09165	20.494499	19.3608	53.043099		
645	5	3	0.06445	21.262899	18.5723	53.043099		
646	5	2	-0.0468	20.882601	20.7437	53.043099		
647	5	2	-0.0167	19.900299	21.745701	53.043099		
648	5	3	0.061	23.004499	20.3232	53.043099		
649	5	1	-0.1286	0.635777	22.324699	53.043099		
650	5	2	0.09165	1.5115	21.3797	53.043099		
651	5	3	0.06445	1.21285	20.319901	53.043099		
652	5	2	-0.0468	2.90316	21.735001	53.043099		
653	5	2	-0.0167	3.27978	23.0867	53.043099		
654	5	3	0.061	3.59996	19.687099	53.043099		
655	5	1	-0.1286	5.85109	18.8363	53.043099		
656	5	2	0.09165	6.23163	20.0672	53.043099		
657	5	3	0.06445	7.29873	20.3384	53.043099		
658	5	2	-0.0468	5.22809	21.0947	53.043099		
659	5	2	-0.0167	3.86911	20.745001	53.043099		
660	5	3	0.061	6.65323	22.722099	53.043099		
661	5	1	-0.1286	6.26449	25.097099	53.043099		
662	5	2	0.09165	5.00823	24.811199	53.043099		
663	5	3	0.06445	4.23978	25.599701	53.043099		
664	5	2	-0.0468	4.62011	23.428301	53.043099		
665	5	2	-0.0167	5.60246	22.4263	53.043099		
666	5	3	0.061	2.49817	23.848801	53.043099		
667	5	1	-0.1286	12.1156	14.4853	53.043099		
668	5	2	0.09165	11.2399	15.4303	53.043099		
669	5	3	0.06445	11.5385	16.490101	53.043099		
670	5	2	-0.0468	9.8482	15.075	53.043099		
671	5	2	-0.0167	9.47158	13.7233	53.043099		
672	5	3	0.061	9.1514	17.1229	53.043099		
673	5	1	-0.1286	6.90027	17.9737	53.043099		
674	5	2	0.09165	6.51973	16.7428	53.043099		
675	5	3	0.06445	5.45263	16.4716	53.043099		
676	5	2	-0.0468	7.52327	15.7153	53.043099		
677	5	2	-0.0167	8.88224	16.065001	53.043099		
678	5	3	0.061	6.09813	14.0879	53.043099		
679	5	1	-0.1286	6.48687	11.7129	53.043099		
680	5	2	0.09165	7.74313	11.9988	53.043099		
681	5	3	0.06445	8.51157	11.2103	53.043099		
682	5	2	-0.0468	8.13125	13.3817	53.043099		
683	5	2	-0.0167	7.1489	14.3837	53.043099		
684	5	3	0.061	10.2532	12.9612	53.043099		
685	5	1	-0.1286	13.3871	14.9627	53.043099		
686	5	2	0.09165	14.2629	14.0177	53.043099		
687	5	3	0.06445	13.9642	12.9579	53.043099		
688	5	2	-0.0468	15.6545	14.373	53.043099		
689	5	2	-0.0167	16.031099	15.7247	53.043099		
690	5	3	0.061	16.351299	12.3251	53.043099		
691	5	1	-0.1286	18.6024	11.4743	53.043099		
692	5	2	0.09165	18.983	12.7052	53.043099		
693	5	3	0.06445	20.0501	12.9764	53.043099		
694	5	2	-0.0468	17.979401	13.7327	53.043099		
695	5	2	-0.0167	16.620501	13.383	53.043099		
696	5	3	0.061	19.4046	15.3601	53.043099		
697	5	1	-0.1286	19.0158	17.7351	53.043099		
698	5	2	0.09165	17.7596	17.4492	53.043099		
699	5	3	0.06445	16.9911	18.2377	53.043099		
700	5	2	-0.0468	17.3715	16.066299	53.043099		
701	5	2	-0.0167	18.3538	15.0643	53.043099		
702	5	3	0.061	15.2495	16.486799	53.043099		
703	5	1	-0.1286	24.866899	7.12332	53.043099		
704	5	2	0.09165	23.991199	8.06833	53.043099		
705	5	3	0.06445	24.2899	9.12808	53.043099		
706	5	2	-0.0468	22.5996	7.71302	53.043099		
707	5	2	-0.0167	22.2229	6.36125	53.043099		
708	5	3	0.061	21.9028	9.76093	53.043099		
709	5	1	-0.1286	19.6516	10.6117	53.043099		
710	5	2	0.09165	19.271099	9.38084	53.043099		
711	5	3	0.06445	18.204	9.1096	53.043099		
712	5	2	-0.0468	20.274599	8.35328	53.043099		
713	5	2	-0.0167	21.6336	8.703	53.043099		
714	5	3	0.061	18.849501	6.72588	53.043099		
715	5	1	-0.1286	19.238199	4.35094	53.043099		
716	5	2	0.09165	20.494499	4.63684	53.043099		
717	5	3	0.06445	21.262899	3.84832	53.043099		
718	5	2	-0.0468	20.882601	6.0197	53.043099		
719	5	2	-0.0167	19.900299	7.02175	53.043099		
720	5	3	0.061	23.004499	5.59919	53.043099		
721	10	4	-0.8476	24.675501	25.513901	4.863903	#	OT
722	10	5	0.4238	25.0975	25.898001	4.042702	#	HT
723	10	5	0.4238	25.023199	25.9904	5.671402	#	HT
724	12	4	-0.8476	11.4676	17.759001	3.935803	#	OT
725	12	5	0.4238	10.874	17.5369	4.709301	#	HT
726	12	5	0.4238	11.7939	16.913799	3.5126	#	HT
727	20	4	-0.8476	18.7995	3.71382	36.573204	#	OT
728	20	5	0.4238	18.937799	4.70008	36.482804	#	HT
729	20	5	0.4238	18.792101	3.46569	37.541901	#	HT
730	22	4	-0.8476	3.56117	7.59074	1.366703	#	OT
731	22	5	0.4238	2.68763	7.34446	1.786503	#	HT
732	22	5	0.4238	3.87463	6.8403	0.784802	#	HT
733	24	4	-0.8476	13.233	0.619988	3.496903	#	OT
734	24	5	0.4238	12.8484	1.43062	3.9384	#	HT
735	24	5	0.4238	12.5711	29.319599	3.539204	#	HT
736	25	4	-0.8476	0.212228	4.11919	27.770806	#	OT
737	25	5	0.4238	0.18486	4.67933	28.598801	#	HT
738	25	5	0.4238	0.555425	3.20742	27.996498	#	HT
739	26	4	-0.8476	22.5972	23.3374	31.753601	#	OT
740	26	5	0.4238	21.8535	22.936001	32.288201	#	HT
741	26	5	0.4238	23.4678	23.171499	32.216599	#	HT
742	31	4	-0.8476	9.94185	24.687799	4.949204	#	OT
743	31	5	0.4238	8.96583	24.876699	4.841103	#	HT
744	31	5	0.4238	10.46	25.535601	4.836201	#	HT
745	34	4	-0.8476	4.70033	2.28941	22.179001	#	OT
746	34	5	0.4238	4.15071	1.54402	22.556198	#	HT
747	34	5	0.4238	5.04177	2.0279	21.276203	#	HT
748	35	4	-0.8476	13.8243	20.0888	34.232498	#	OT
749	35	5	0.4238	14.4524	19.368999	33.936905	#	HT
750	35	5	0.4238	13.7435	20.0721	35.229103	#	HT
751	39	4	-0.8476	18.0084	11.2189	19.786301	#	OT
752	39	5	0.4238	17.897499	10.8937	18.847202	#	HT
753	39	5	0.4238	17.137501	11.1399	20.271401	#	HT
754	46	4	-0.8476	4.64285	28.714199	60.729103	#	OT
755	46	5	0.4238	4.97226	27.922001	60.215103	#	HT
756	46	5	0.4238	4.19436	29.3535	60.104103	#	HT
757	47	4	-0.8476	12.6639	2.65839	76.8601	#	OT
758	47	5	0.4238	12.9625	1.92816	76.245102	#	HT
759	47	5	0.4238	12.3959	2.26516	77.739105	#	HT
760	49	4	-0.8476	25.4216	8.83468	66.358101	#	OT
761	49	5	0.4238	24.900999	8.32847	67.045105	#	HT
762	49	5	0.4238	0.053055	8.25932	65.551102	#	HT
763	51	4	-0.8476	6.67887	7.24208	33.921799	#	OT
764	51	5	0.4238	7.65693	7.40565	33.7929	#	HT
765	51	5	0.4238	6.33448	7.83649	34.648499	#	HT
766	52	4	-0.8476	17.711	17.700399	27.983803	#	OT
767	52	5	0.4238	17.3253	18.5075	27.536904	#	HT
768	52	5	0.4238	17.5755	17.769899	28.972099	#	HT
769	53	4	-0.8476	11.283	13.7544	34.052002	#	OT
770	53	5	0.4238	11.487	13.3321	34.935105	#	HT
771	53	5	0.4238	11.8483	13.3334	33.342606	#	HT
772	57	4	-0.8476	18.0179	23.072599	81.732102	#	OT
773	57	5	0.4238	17.1266	22.837099	81.344101	#	HT
774	57	5	0.4238	18.625601	22.2803	81.676102	#	HT
775	58	4	-0.8476	2.76382	16.8738	38.769402	#	OT
776	58	5	0.4238	3.23199	15.9901	38.768601	#	HT
777	58	5	0.4238	2.37677	17.0452	39.6754	#	HT
778	60	4	-0.8476	20.887699	19.4946	23.431099	#	OT
779	60	5	0.4238	19.9147	19.603901	23.227799	#	HT
780	60	5	0.4238	21.417801	19.5979	22.589401	#	HT
781	61	4	-0.8476	12.4176	10.4929	75.662102	#	OT
782	61	5	0.4238	11.9945	10.3592	74.766098	#	HT
783	61	5	0.4238	13.3752	10.7554	75.542099	#	HT
784	66	4	-0.8476	5.09054	21.048201	8.937603	#	OT
785	66	5	0.4238	5.2595	21.9074	8.454502	#	HT
786	66	5	0.4238	4.12906	21.001699	9.2085	#	HT
787	69	4	-0.8476	15.7913	8.93398	20.034001	#	OT
788	69	5	0.4238	15.9385	8.86793	21.020901	#	HT
789	69	5	0.4238	14.8233	9.10724	19.852402	#	HT
790	72	4	-0.8476	17.138599	5.53449	70.960098	#	OT
791	72	5	0.4238	17.43	4.74116	70.425102	#	HT
792	72	5	0.4238	17.7293	5.63193	71.761101	#	HT
793	73	4	-0.8476	20.747	10.0021	85.532105	#	OT
794	73	5	0.4238	21.214001	9.20794	85.921105	#	HT
795	73	5	0.4238	21.4247	10.6756	85.237099	#	HT
796	76	4	-0.8476	15.7464	6.78469	16.587101	#	OT
797	76	5	0.4238	14.9701	6.15758	16.522904	#	HT
798	76	5	0.4238	15.8368	7.2921	15.730202	#	HT
799	81	4	-0.8476	4.07078	25.6602	21.074902	#	OT
800	81	5	0.4238	4.90491	26.195299	21.208801	#	HT
801	81	5	0.4238	3.48126	26.122101	20.412201	#	HT
802	83	4	-0.8476	12.3171	21.1805	66.085098	#	OT
803	83	5	0.4238	12.6531	20.4102	65.543099	#	HT
804	83	5	0.4238	13.0909	21.657801	66.501099	#	HT
805	86	4	-0.8476	1.06036	15.8232	54.522904	#	OT
806	86	5	0.4238	0.373601	15.1134	54.679405	#	HT
807	86	5	0.4238	1.01796	16.496599	55.260903	#	HT
808	92	4	-0.8476	23.6017	14.5823	29.914002	#	OT
809	92	5	0.4238	23.0208	14.2566	30.659905	#	HT
810	92	5	0.4238	24.103201	13.8115	29.521103	#	HT
811	94	4	-0.8476	20.3636	19.869301	60.946099	#	OT
812	94	5	0.4238	20.6308	20.812	60.746102	#	HT
813	94	5	0.4238	21.054701	19.4436	61.530106	#	HT
814	95	4	-0.8476	7.50449	17.534401	12.487301	#	OT
815	95	5	0.4238	6.83651	18.2241	12.207703	#	HT
816	95	5	0.4238	8.37301	17.7034	12.021401	#	HT
817	96	4	-0.8476	13.7466	1.8207	31.187302	#	OT
818	96	5	0.4238	14.2691	1.46806	31.9636	#	HT
819	96	5	0.4238	12.8926	1.3079	31.0998	#	HT
820	97	4	-0.8476	23.204201	28.8682	74.933106	#	OT
821	97	5	0.4238	22.8207	28.277	75.643105	#	HT
822	97	5	0.4238	23.6366	28.305799	74.229103	#	HT
823	98	4	-0.8476	14.3297	8.13895	79.641098	#	OT
824	98	5	0.4238	15.2532	8.18684	79.261101	#	HT
825	98	5	0.4238	14.3804	7.89279	80.609101	#	HT
826	99	4	-0.8476	24.5571	17.1518	72.227104	#	OT
827	99	5	0.4238	23.8836	17.7952	71.863098	#	HT
828	99	5	0.4238	24.9076	16.580799	71.484101	#	HT
829	100	4	-0.8476	15.6414	10.0546	55.252503	#	OT
830	100	5	0.4238	14.8358	10.6461	55.288201	#	HT
831	100	5	0.4238	16.380199	10.4651	55.787003	#	HT
832	101	4	-0.8476	6.09473	11.1796	30.182305	#	OT
833	101	5	0.4238	5.53754	11.5491	30.925904	#	HT
834	101	5	0.4238	6.20278	11.8735	29.470299	#	HT
835	102	4	-0.8476	3.98777	4.66902	35.886101	#	OT
836	102	5	0.4238	4.39495	5.23983	35.173104	#	HT
837	102	5	0.4238	4.67775	4.03978	36.243805	#	HT
838	103	4	-0.8476	11.8365	22.1134	81.389099	#	OT
839	103	5	0.4238	12.6592	22.003401	81.946099	#	HT
840	103	5	0.4238	11.5177	21.2159	81.084099	#	HT
841	104	4	-0.8476	19.761299	7.40509	19.623303	#	OT
842	104	5	0.4238	18.8915	7.45415	19.132302	#	HT
843	104	5	0.4238	20.4856	7.12907	18.991501	#	HT
844	105	4	-0.8476	17.438	15.8841	63.030106	#	OT
845	105	5	0.4238	17.894899	15.2164	63.618103	#	HT
846	105	5	0.4238	16.6595	15.4507	62.576103	#	HT
847	106	4	-0.8476	13.9225	26.0888	14.658802	#	OT
848	106	5	0.4238	14.154	26.942801	15.124603	#	HT
849	106	5	0.4238	13.0843	25.711201	15.052101	#	HT
850	107	4	-0.8476	25.375299	19.6695	75.634102	#	OT
851	107	5	0.4238	0.581532	19.9181	76.294106	#	HT
852	107	5	0.4238	0.24585	19.0182	74.974098	#	HT
853	108	4	-0.8476	12.4448	24.823601	27.815499	#	OT
854	108	5	0.4238	12.8896	24.513599	26.975304	#	HT
855	108	5	0.4238	11.5746	25.2617	27.589905	#	HT
856	109	4	-0.8476	22.671101	4.15895	81.966103	#	OT
857	109	5	0.4238	22.1028	4.96331	81.792099	#	HT
858	109	5	0.4238	22.1416	3.33082	81.782105	#	HT
859	110	4	-0.8476	13.8513	6.64504	77.281105	#	OT
860	110	5	0.4238	14.0821	7.0495	78.1661	#	HT
861	110	5	0.4238	12.8844	6.39022	77.273102	#	HT
862	111	4	-0.8476	24.0919	7.27722	81.168099	#	OT
863	111	5	0.4238	23.180599	6.88378	81.289101	#	HT
864	111	5	0.4238	24.1738	8.10568	81.722099	#	HT
865	112	4	-0.8476	22.8738	12.7383	40.262703	#	OT
866	112	5	0.4238	23.646999	12.3531	39.759003	#	HT
867	112	5	0.4238	23.0583	12.6902	41.2444	#	HT
868	114	4	-0.8476	1.58734	0.045377	71.517105	#	OT
869	114	5	0.4238	1.83078	28.616199	71.103104	#	HT
870	114	5	0.4238	0.639081	0.268704	71.292099	#	HT
871	115	4	-0.8476	2.51201	23.667299	18.412602	#	OT
872	115	5	0.4238	2.47391	24.6609	18.519501	#	HT
873	115	5	0.4238	1.61404	23.327499	18.133003	#	HT
874	116	4	-0.8476	14.6867	27.589701	84.464104	#	OT
875	116	5	0.4238	13.8333	27.646299	84.982102	#	HT
876	116	5	0.4238	14.5511	27.9828	83.5541	#	HT
877	117	4	-0.8476	23.940901	22.398899	18.700001	#	OT
878	117	5	0.4238	24.105	21.716999	19.412804	#	HT
879	117	5	0.4238	23.6598	23.2609	19.121903	#	HT
880	118	4	-0.8476	2.07932	2.29682	20.368	#	OT
881	118	5	0.4238	2.55069	1.4304	20.532704	#	HT
882	118	5	0.4238	2.67782	2.90887	19.851101	#	HT
883	119	4	-0.8476	0.520802	28.1691	5.9538	#	OT
884	119	5	0.4238	1.00426	29.0441	5.929203	#	HT
885	119	5	0.4238	25.0574	28.3277	6.157303	#	HT
886	120	4	-0.8476	24.0196	4.23686	55.618904	#	OT
887	120	5	0.4238	24.2948	3.9669	54.696205	#	HT
888	120	5	0.4238	24.1472	3.46647	56.243599	#	HT
889	121	4	-0.8476	17.630301	4.24824	7.374001	#	OT
890	121	5	0.4238	16.9639	3.50572	7.442402	#	HT
891	121	5	0.4238	17.157101	5.12721	7.433502	#	HT
892	122	4	-0.8476	22.4564	23.4636	28.818405	#	OT
893	122	5	0.4238	21.892401	23.395399	27.9954	#	HT
894	122	5	0.4238	23.0702	22.675699	28.868103	#	HT
895	123	4	-0.8476	0.126381	29.405001	12.079903	#	OT
896	123	5	0.4238	24.758801	0.196946	12.510002	#	HT
897	123	5	0.4238	0.387908	0.674185	11.433903	#	HT
898	124	4	-0.8476	24.463699	24.229601	25.528603	#	OT
899	124	5	0.4238	24.542101	23.2339	25.478401	#	HT
900	124	5	0.4238	25.374599	24.6313	25.622605	#	HT
901	125	4	-0.8476	18.967699	18.257099	4.263001	#	OT
902	125	5	0.4238	19.772301	17.9282	4.757401	#	HT
903	125	5	0.4238	19.2003	18.3918	3.299801	#	HT
904	126	4	-0.8476	9.65445	22.7132	51.376	#	OT
905	126	5	0.4238	10.2971	23.341999	51.813805	#	HT
906	126	5	0.4238	9.634	21.851299	51.882698	#	HT
907	127	4	-0.8476	6.39611	22.530399	86.074105	#	OT
908	127	5	0.4238	5.77623	21.8228	86.413101	#	HT
909	127	5	0.4238	5.97788	23.4296	86.203095	#	HT
910	128	4	-0.8476	0.500666	12.5276	18.900303	#	OT
911	128	5	0.4238	1.10269	13.3195	19.0028	#	HT
912	128	5	0.4238	25.100599	12.8324	18.596703	#	HT
913	129	4	-0.8476	2.32743	4.16674	10.545101	#	OT
914	129	5	0.4238	2.98789	3.78996	9.895703	#	HT
915	129	5	0.4238	1.56154	3.53201	10.647701	#	HT
916	130	4	-0.8476	6.74539	5.91069	83.335098	#	OT
917	130	5	0.4238	6.39204	5.89424	84.271103	#	HT
918	130	5	0.4238	6.85274	4.97363	83.003105	#	HT
919	131	4	-0.8476	19.541901	14.5195	12.947903	#	OT
920	131	5	0.4238	19.8193	13.8074	12.303002	#	HT
921	131	5	0.4238	18.7073	14.2351	13.419701	#	HT
922	132	4	-0.8476	14.514	16.519699	15.457901	#	OT
923	132	5	0.4238	15.3408	16.8332	15.924801	#	HT
924	132	5	0.4238	14.5259	16.837299	14.509701	#	HT
925	133	4	-0.8476	1.2356	2.5573	75.979103	#	OT
926	133	5	0.4238	1.19216	3.3491	75.370102	#	HT
927	133	5	0.4238	0.902403	2.81573	76.886101	#	HT
928	134	4	-0.8476	9.41792	15.3212	72.9711	#	OT
929	134	5	0.4238	9.18626	14.4703	72.4991	#	HT
930	134	5	0.4238	9.54936	16.049601	72.298104	#	HT
931	135	4	-0.8476	21.7943	14.7544	86.122101	#	OT
932	135	5	0.4238	22.103399	15.632	85.756104	#	HT
933	135	5	0.4238	20.811001	14.657	85.969101	#	HT
934	136	4	-0.8476	5.25686	7.71213	13.956101	#	OT
935	136	5	0.4238	5.54618	8.44823	13.3442	#	HT
936	136	5	0.4238	5.43973	7.97497	14.903504	#	HT
937	137	4	-0.8476	23.6768	2.10664	75.188103	#	OT
938	137	5	0.4238	23.509001	1.14493	75.404099	#	HT
939	137	5	0.4238	24.555901	2.38678	75.573105	#	HT
940	138	4	-0.8476	2.60427	27.931499	22.768601	#	OT
941	138	5	0.4238	3.22587	28.2603	23.479599	#	HT
942	138	5	0.4238	2.77036	28.4359	21.921303	#	HT
943	139	4	-0.8476	15.9888	10.8045	58.019501	#	OT
944	139	5	0.4238	15.3624	10.1419	58.4301	#	HT
945	139	5	0.4238	15.5071	11.667	57.8648	#	HT
946	140	4	-0.8476	13.887	8.92361	53.369599	#	OT
947	140	5	0.4238	13.4976	8.00411	53.423401	#	HT
948	140	5	0.4238	14.64	9.00541	54.0224	#	HT
949	141	4	-0.8476	2.41479	24.6464	82.226105	#	OT
950	141	5	0.4238	2.6154	24.2719	81.321099	#	HT
951	141	5	0.4238	2.25854	23.8972	82.870102	#	HT
952	142	4	-0.8476	13.3756	14.9298	55.891503	#	OT
953	142	5	0.4238	13.2369	15.0415	54.907501	#	HT
954	142	5	0.4238	13.9166	15.6949	56.240799	#	HT
955	143	4	-0.8476	3.74552	13.7879	14.996002	#	OT
956	143	5	0.4238	4.39346	13.7376	14.235901	#	HT
957	143	5	0.4238	3.73846	12.9164	15.486202	#	HT
958	144	4	-0.8476	21.148899	0.979127	13.5056	#	OT
959	144	5	0.4238	21.798201	0.454165	14.055901	#	HT
960	144	5	0.4238	20.253099	0.971824	13.949902	#	HT
961	145	4	-0.8476	23.7227	28.187	29.082001	#	OT
962	145	5	0.4238	24.374399	28.325199	29.827805	#	HT
963	145	5	0.4238	23.1287	28.9879	29.005799	#	HT
964	146	4	-0.8476	10.797	14.7837	57.211502	#	OT
965	146	5	0.4238	10.5704	15.7192	57.482804	#	HT
966	146	5	0.4238	11.5082	14.8035	56.508805	#	HT
967	147	4	-0.8476	21.3549	1.40255	6.549603	#	OT
968	147	5	0.4238	21.571301	1.99032	5.770104	#	HT
969	147	5	0.4238	20.9641	1.9554	7.285504	#	HT
970	148	4	-0.8476	17.439301	23.9555	23.150398	#	OT
971	148	5	0.4238	17.9484	23.1465	23.444405	#	HT
972	148	5	0.4238	17.8011	24.763901	23.6148	#	HT
973	149	4	-0.8476	11.2673	25.7211	36.681099	#	OT
974	149	5	0.4238	10.8211	26.4245	36.1278	#	HT
975	149	5	0.4238	12.2596	25.827999	36.619301	#	HT
976	150	4	-0.8476	25.225599	13.0474	61.098099	#	OT
977	150	5	0.4238	25.388901	12.8546	60.131104	#	HT
978	150	5	0.4238	24.277399	13.3392	61.224098	#	HT
979	151	4	-0.8476	5.53689	23.895	80.2911	#	OT
980	151	5	0.4238	5.39711	23.0949	79.7081	#	HT
981	151	5	0.4238	6.51697	24.0488	80.417099	#	HT
982	152	4	-0.8476	4.759	10.4727	86.5681	#	OT
983	152	5	0.4238	5.2176	11.0466	87.246109	#	HT
984	152	5	0.4238	4.04891	11.0047	86.106102	#	HT
985	153	4	-0.8476	12.3249	0.322586	63.726105	#	OT
986	153	5	0.4238	12.1303	1.29621	63.845101	#	HT
987	153	5	0.4238	12.4024	29.3342	64.6231	#	HT
988	154	4	-0.8476	16.841801	17.4851	1.348103	#	OT
989	154	5	0.4238	17.697399	17.097799	1.004704	#	HT
990	154	5	0.4238	16.6497	17.115101	2.257103	#	HT
991	155	4	-0.8476	2.68798	17.290501	14.713501	#	OT
992	155	5	0.4238	3.02495	17.2132	13.775204	#	HT
993	155	5	0.4238	2.01091	16.5748	14.884602	#	HT
994	156	4	-0.8476	13.1293	1.17631	86.224106	#	OT
995	156	5	0.4238	12.2835	1.40354	86.707108	#	HT
996	156	5	0.4238	13.0354	0.279768	85.7911	#	HT
997	157	4	-0.8476	14.9825	28.489	71.710098	#	OT
998	157	5	0.4238	14.3101	29.1994	71.918099	#	HT
999	157	5	0.4238	14.6189	27.597099	71.979103	#	HT
1000	158	4	-0.8476	1.9825	5.76911	34.0289	#	OT
1001	158	5	0.4238	2.52076	6.43443	33.511605	#	HT
1002	158	5	0.4238	1.05018	5.74198	33.668305	#	HT
1003	159	4	-0.8476	24.8309	8.95998	79.0691	#	OT
1004	159	5	0.4238	24.5776	8.22319	79.696099	#	HT
1005	159	5	0.4238	24.0236	9.25504	78.558106	#	HT
1006	160	4	-0.8476	1.56882	27.0553	57.828201	#	OT
1007	160	5	0.4238	1.587	26.553301	58.6931	#	HT
1008	160	5	0.4238	1.04795	27.900999	57.944603	#	HT
1009	161	4	-0.8476	22.5996	14.7554	52.244805	#	OT
1010	161	5	0.4238	23.540501	15.0941	52.238404	#	HT
1011	161	5	0.4238	22.2526	14.7529	53.182602	#	HT
1012	162	4	-0.8476	5.05461	11.2767	58.509102	#	OT
1013	162	5	0.4238	4.20363	11.1163	59.010102	#	HT
1014	162	5	0.4238	5.04754	12.2008	58.127503	#	HT
1015	163	4	-0.8476	18.4111	12.6531	69.799103	#	OT
1016	163	5	0.4238	18.1252	13.4223	70.371102	#	HT
1017	163	5	0.4238	19.1712	12.9367	69.215103	#	HT
1018	164	4	-0.8476	0.514011	20.240999	30.898903	#	OT
1019	164	5	0.4238	1.08069	19.511499	31.282006	#	HT
1020	164	5	0.4238	0.434507	20.9848	31.5625	#	HT
1021	165	4	-0.8476	12.612	20.586901	10.696602	#	OT
1022	165	5	0.4238	13.549	20.412201	10.999104	#	HT
1023	165	5	0.4238	12.3354	19.8815	10.044003	#	HT
1024	166	4	-0.8476	2.04704	0.774109	36.578201	#	OT
1025	166	5	0.4238	1.14643	0.361349	36.4422	#	HT
1026	166	5	0.4238	2.0118	1.40226	37.355499	#	HT
1027	167	4	-0.8476	2.60242	12.5263	85.9711	#	OT
1028	167	5	0.4238	3.17301	13.2778	85.640099	#	HT
1029	167	5	0.4238	1.67556	12.8612	86.141098	#	HT
1030	168	4	-0.8476	11.5359	2.44383	18.215901	#	OT
1031	168	5	0.4238	11.259	3.25154	18.736401	#	HT
1032	168	5	0.4238	11.5189	2.65512	17.238602	#	HT
1033	169	4	-0.8476	23.363501	11.711	67.229103	#	OT
1034	169	5	0.4238	22.914499	11.104	66.573105	#	HT
1035	169	5	0.4238	23.3412	11.2949	68.1381	#	HT
1036	170	4	-0.8476	20.8939	12.1606	56.663101	#	OT
1037	170	5	0.4238	20.7976	12.5482	57.579804	#	HT
1038	170	5	0.4238	20.0138	11.7928	56.362602	#	HT
1039	172	4	-0.8476	5.29771	6.5994	66.615105	#	OT
1040	172	5	0.4238	6.16326	6.37942	66.1651	#	HT
1041	172	5	0.4238	5.20443	7.59214	66.691101	#	HT
1042	173	4	-0.8476	3.42593	26.950899	30.666405	#	OT
1043	173	5	0.4238	2.56547	27.392099	30.921402	#	HT
1044	173	5	0.4238	3.34749	25.9634	30.802902	#	HT
1045	174	4	-0.8476	11.0041	23.778799	85.648102	#	OT
1046	174	5	0.4238	10.3632	24.244101	86.258103	#	HT
1047	174	5	0.4238	10.5597	23.6029	84.769104	#	HT
1048	175	4	-0.8476	16.631701	10.2891	28.134606	#	OT
1049	175	5	0.4238	17.5972	10.4284	27.914803	#	HT
1050	175	5	0.4238	16.3358	10.9829	28.791199	#	HT
1051	176	4	-0.8476	17.305599	14.9233	74.641098	#	OT
1052	176	5	0.4238	16.5072	15.127	74.074105	#	HT
1053	176	5	0.4238	17.0072	14.6956	75.5681	#	HT
1054	177	4	-0.8476	16.0858	11.8818	68.352104	#	OT
1055	177	5	0.4238	16.6059	12.355	69.063103	#	HT
1056	177	5	0.4238	15.6259	11.0872	68.7481	#	HT
1057	178	4	-0.8476	21.5818	1.55301	47.682305	#	OT
1058	178	5	0.4238	20.6469	1.69237	48.008805	#	HT
1059	178	5	0.4238	21.607	1.65945	46.688301	#	HT
1060	179	4	-0.8476	6.40054	25.883699	66.086106	#	OT
1061	179	5	0.4238	5.61893	26.4692	65.871102	#	HT
1062	179	5	0.4238	6.11725	24.9251	66.056099	#	HT
1063	180	4	-0.8476	16.459299	21.6504	54.181	#	OT
1064	180	5	0.4238	16.589899	20.916201	54.847305	#	HT
1065	180	5	0.4238	16.042801	21.2777	53.3517	#	HT
1066	181	4	-0.8476	16.271	9.53385	1.190602	#	OT
1067	181	5	0.4238	15.6626	10.1243	1.720902	#	HT
1068	181	5	0.4238	16.1957	8.59355	1.522503	#	HT
1069	182	4	-0.8476	19.968399	6.35742	6.540402	#	OT
1070	182	5	0.4238	20.296499	6.38768	7.4846	#	HT
1071	182	5	0.4238	19.427999	5.5275	6.401802	#	HT
1072	183	4	-0.8476	3.56904	17.4125	4.780701	#	OT
1073	183	5	0.4238	3.26006	18.358101	4.882504	#	HT
1074	183	5	0.4238	3.2912	16.882999	5.582302	#	HT
1075	184	4	-0.8476	17.077	25.6759	71.891098	#	OT
1076	184	5	0.4238	18.0019	26.0527	71.942101	#	HT
1077	184	5	0.4238	17.035999	24.989901	71.164101	#	HT
1078	185	4	-0.8476	14.3531	21.9009	31.586601	#	OT
1079	185	5	0.4238	15.2543	22.1975	31.2705	#	HT
1080	185	5	0.4238	14.3807	20.9252	31.804199	#	HT
1081	186	4	-0.8476	13.5939	3.58884	21.210404	#	OT
1082	186	5	0.4238	12.6969	4.00161	21.052101	#	HT
1083	186	5	0.4238	13.496	2.80279	21.820801	#	HT
1084	187	4	-0.8476	23.036501	28.997999	64.947106	#	OT
1085	187	5	0.4238	22.8813	0.440736	65.3741	#	HT
1086	187	5	0.4238	22.584499	28.2868	65.4851	#	HT
1087	188	4	-0.8476	23.5704	10.3568	59.653099	#	OT
1088	188	5	0.4238	23.550501	10.7097	58.718102	#	HT
1089	188	5	0.4238	22.636	10.2849	60.002098	#	HT
1090	189	4	-0.8476	1.33673	1.15597	25.404099	#	OT
1091	189	5	0.4238	2.23885	0.79743	25.164101	#	HT
1092	189	5	0.4238	1.22323	1.13494	26.397499	#	HT
1093	190	4	-0.8476	17.481899	0.613424	28.147103	#	OT
1094	190	5	0.4238	17.834499	1.28809	28.795601	#	HT
1095	190	5	0.4238	18.142099	29.316799	28.048805	#	HT
1096	191	4	-0.8476	18.9373	15.5459	1.116402	#	OT
1097	191	5	0.4238	18.549999	15.7657	2.011704	#	HT
1098	191	5	0.4238	18.856199	14.5631	0.950302	#	HT
1099	192	4	-0.8476	21.606501	7.18907	27.374504	#	OT
1100	192	5	0.4238	21.615	7.87504	26.647003	#	HT
1101	192	5	0.4238	22.226299	6.4417	27.1353	#	HT
1102	193	4	-0.8476	2.8762	12.4687	37.2957	#	OT
1103	193	5	0.4238	2.27335	11.9823	37.928101	#	HT
1104	193	5	0.4238	3.3742	11.8075	36.734703	#	HT
1105	194	4	-0.8476	3.75918	25.8104	79.322106	#	OT
1106	194	5	0.4238	4.24785	25.1264	79.864105	#	HT
1107	194	5	0.4238	3.90612	26.7166	79.718102	#	HT
1108	195	4	-0.8476	1.5579	14.9579	24.6259	#	OT
1109	195	5	0.4238	1.21798	15.1994	23.717003	#	HT
1110	195	5	0.4238	1.11519	14.1159	24.934502	#	HT
1111	196	4	-0.8476	17.885201	25.508801	29.530899	#	OT
1112	196	5	0.4238	18.1901	26.1866	28.861801	#	HT
1113	196	5	0.4238	17.649099	24.658701	29.060303	#	HT
1114	197	4	-0.8476	20.129499	24.0825	30.427605	#	OT
1115	197	5	0.4238	19.872801	23.4447	31.153801	#	HT
1116	197	5	0.4238	19.3365	24.636801	30.175102	#	HT
1117	198	4	-0.8476	13.6892	0.339704	7.611302	#	OT
1118	198	5	0.4238	14.2889	29.171	7.101402	#	HT
1119	198	5	0.4238	12.755	0.258971	7.263802	#	HT
1120	199	4	-0.8476	21.4743	0.762682	69.725105	#	OT
1121	199	5	0.4238	21.366301	0.36991	70.6381	#	HT
1122	199	5	0.4238	22.443199	0.769171	69.477104	#	HT
1123	200	4	-0.8476	25.4575	3.05586	78.393105	#	OT
1124	200	5	0.4238	25.3549	3.88828	78.938103	#	HT
1125	200	5	0.4238	0.21061	2.29601	78.991104	#	HT
1126	201	4	-0.8476	2.40248	1.07582	73.9301	#	OT
1127	201	5	0.4238	1.8409	1.5262	74.6241	#	HT
1128	201	5	0.4238	1.81617	0.742864	73.192101	#	HT
1129	202	4	-0.8476	18.4573	10.7959	33.240402	#	OT
1130	202	5	0.4238	18.1803	10.199	33.993401	#	HT
1131	202	5	0.4238	17.6703	11.33	32.931603	#	HT
1132	203	4	-0.8476	5.54741	23.3393	12.263802	#	OT
1133	203	5	0.4238	6.24298	23.105499	11.584503	#	HT
1134	203	5	0.4238	5.89921	24.0536	12.868801	#	HT
1135	204	4	-0.8476	16.884199	24.986601	3.219303	#	OT
1136	204	5	0.4238	16.549	25.804701	3.686604	#	HT
1137	204	5	0.4238	16.2192	24.247101	3.3237	#	HT
1138	205	4	-0.8476	13.4697	9.37492	67.077103	#	OT
1139	205	5	0.4238	12.7644	10.0573	66.885102	#	HT
1140	205	5	0.4238	13.9584	9.62646	67.913101	#	HT
1141	206	4	-0.8476	8.88942	29.4107	5.865803	#	OT
1142	206	5	0.4238	9.44154	28.876699	5.225403	#	HT
1143	206	5	0.4238	8.00377	28.9646	5.994702	#	HT
1144	207	4	-0.8476	3.21384	16.652901	78.182099	#	OT
1145	207	5	0.4238	3.89984	17.246599	77.761101	#	HT
1146	207	5	0.4238	2.52019	17.2134	78.634102	#	HT
1147	208	4	-0.8476	9.89595	17.612101	24.2659	#	OT
1148	208	5	0.4238	10.6341	17.0212	23.9403	#	HT
1149	208	5	0.4238	9.73141	17.4359	25.236405	#	HT
1150	209	4	-0.8476	8.44154	6.83305	75.677101	#	OT
1151	209	5	0.4238	8.44435	5.83327	75.656105	#	HT
1152	209	5	0.4238	7.70679	7.15191	76.2761	#	HT
1153	210	4	-0.8476	8.69823	2.96408	62.605103	#	OT
1154	210	5	0.4238	8.79502	3.39592	61.7081	#	HT
1155	210	5	0.4238	9.22975	2.1173	62.626099	#	HT
1156	211	4	-0.8476	0.553731	26.3552	39.449005	#	OT
1157	211	5	0.4238	0.904339	25.814501	38.684403	#	HT
1158	211	5	0.4238	0.803678	25.9146	40.311203	#	HT
1159	212	4	-0.8476	1.77657	26.048201	33.599701	#	OT
1160	212	5	0.4238	1.26065	26.615801	32.958	#	HT
1161	212	5	0.4238	1.1417	25.505301	34.149399	#	HT
1162	214	4	-0.8476	4.58871	22.4884	17.404404	#	OT
1163	214	5	0.4238	4.39689	22.562901	16.425801	#	HT
1164	214	5	0.4238	3.74458	22.630699	17.921303	#	HT
1165	215	4	-0.8476	23.9252	9.36155	16.534901	#	OT
1166	215	5	0.4238	24.2728	9.00034	15.669701	#	HT
1167	215	5	0.4238	22.9259	9.38734	16.5079	#	HT
1168	216	4	-0.8476	1.38176	11.7412	46.065399	#	OT
1169	216	5	0.4238	1.00091	12.6646	46.112099	#	HT
1170	216	5	0.4238	0.688592	11.0798	46.352005	#	HT
1171	217	4	-0.8476	16.805799	3.14611	3.690804	#	OT
1172	217	5	0.4238	16.8515	3.21466	2.694203	#	HT
1173	217	5	0.4238	17.483601	2.48415	4.010803	#	HT
1174	218	4	-0.8476	24.4554	7.74463	31.982102	#	OT
1175	218	5	0.4238	25.065701	8.36614	31.491005	#	HT
1176	218	5	0.4238	23.716801	8.26872	32.406204	#	HT
1177	219	4	-0.8476	15.1998	24.9548	44.150398	#	OT
1178	219	5	0.4238	15.2593	24.856899	43.157006	#	HT
1179	219	5	0.4238	15.6904	25.778799	44.434105	#	HT
1180	220	4	-0.8476	22.313601	22.839899	24.012406	#	OT
1181	220	5	0.4238	21.739	23.6555	23.943604	#	HT
1182	220	5	0.4238	21.754101	22.060801	24.294998	#	HT
1183	221	4	-0.8476	0.639701	3.59525	61.154099	#	OT
1184	221	5	0.4238	1.34917	3.99615	61.734101	#	HT
1185	221	5	0.4238	1.03431	3.34281	60.271103	#	HT
1186	222	4	-0.8476	21.0009	2.16955	35.315705	#	OT
1187	222	5	0.4238	20.6325	1.68386	34.523003	#	HT
1188	222	5	0.4238	20.248699	2.56048	35.846199	#	HT
1189	223	4	-0.8476	17.070801	9.53121	75.5271	#	OT
1190	223	5	0.4238	17.823999	9.33965	76.156105	#	HT
1191	223	5	0.4238	16.7054	10.4434	75.712105	#	HT
1192	224	4	-0.8476	16.207399	1.06581	57.894501	#	OT
1193	224	5	0.4238	16.813801	1.71188	57.430901	#	HT
1194	224	5	0.4238	15.399	1.54942	58.230103	#	HT
1195	225	4	-0.8476	12.4011	22.1259	46.379303	#	OT
1196	225	5	0.4238	13.0834	21.558599	45.918099	#	HT
1197	225	5	0.4238	12.8611	22.8563	46.884102	#	HT
1198	226	4	-0.8476	7.34331	14.5159	36.410103	#	OT
1199	226	5	0.4238	6.48404	15.0262	36.374802	#	HT
1200	226	5	0.4238	7.60548	14.3703	37.364105	#	HT
1201	227	4	-0.8476	13.7303	2.40323	58.611099	#	OT
1202	227	5	0.4238	12.9967	1.72552	58.661102	#	HT
1203	227	5	0.4238	13.5613	3.12692	59.280106	#	HT
1204	229	4	-0.8476	20.623301	15.2404	26.786102	#	OT
1205	229	5	0.4238	21.6014	15.4	26.920304	#	HT
1206	229	5	0.4238	20.481899	14.3154	26.433502	#	HT
1207	230	4	-0.8476	25.369699	0.670677	81.920105	#	OT
1208	230	5	0.4238	25.338499	0.183503	82.793099	#	HT
1209	230	5	0.4238	24.626699	0.349965	81.3321	#	HT
1210	231	4	-0.8476	19.764799	24.935499	61.799103	#	OT
1211	231	5	0.4238	18.834999	25.0439	61.448105	#	HT
1212	231	5	0.4238	20.311701	25.7339	61.547104	#	HT
1213	232	4	-0.8476	11.1919	27.775999	58.968102	#	OT
1214	232	5	0.4238	11.9615	27.1607	58.798104	#	HT
1215	232	5	0.4238	10.3621	27.2384	59.118103	#	HT
1216	233	4	-0.8476	20.3407	19.5035	1.749603	#	OT
1217	233	5	0.4238	19.4034	19.816299	1.595902	#	HT
1218	233	5	0.4238	20.9007	20.270201	2.063603	#	HT
1219	234	4	-0.8476	8.86231	28.6042	78.210098	#	OT
1220	234	5	0.4238	9.82103	28.8752	78.296105	#	HT
1221	234	5	0.4238	8.72319	28.1455	77.3331	#	HT
1222	235	4	-0.8476	22.891399	4.9356	26.931801	#	OT
1223	235	5	0.4238	22.079201	4.56473	27.382202	#	HT
1224	235	5	0.4238	23.658899	4.30703	27.058106	#	HT
1225	236	4	-0.8476	16.746401	8.33197	33.081902	#	OT
1226	236	5	0.4238	17.3603	8.6504	32.359604	#	HT
1227	236	5	0.4238	15.8086	8.60442	32.866501	#	HT
1228	237	4	-0.8476	18.926901	8.99468	6.361401	#	OT
1229	237	5	0.4238	18.3057	9.02124	7.1446	#	HT
1230	237	5	0.4238	19.2889	8.06867	6.254303	#	HT
1231	238	4	-0.8476	1.16428	28.044701	28.486702	#	OT
1232	238	5	0.4238	1.51229	27.318899	27.893303	#	HT
1233	238	5	0.4238	0.82417	27.644899	29.337898	#	HT
1234	239	4	-0.8476	16.4373	4.0157	29.204498	#	OT
1235	239	5	0.4238	15.4429	4.01075	29.310402	#	HT
1236	239	5	0.4238	16.680401	3.61429	28.321404	#	HT
1237	240	4	-0.8476	4.62946	5.49277	11.6679	#	OT
1238	240	5	0.4238	4.81129	4.75729	11.015202	#	HT
1239	240	5	0.4238	5.3142	6.21315	11.557503	#	HT
1240	241	4	-0.8476	5.56284	23.306999	20.2467	#	OT
1241	241	5	0.4238	4.94237	24.0884	20.312901	#	HT
1242	241	5	0.4238	6.01074	23.161301	21.128803	#	HT
1243	242	4	-0.8476	4.6328	15.5055	21.500202	#	OT
1244	242	5	0.4238	5.62442	15.3892	21.556702	#	HT
1245	242	5	0.4238	4.29823	15.1046	20.647301	#	HT
1246	243	4	-0.8476	21.216801	12.6871	74.976105	#	OT
1247	243	5	0.4238	20.528999	12.6869	74.250099	#	HT
1248	243	5	0.4238	21.2731	13.5994	75.381104	#	HT
1249	244	4	-0.8476	3.25164	2.01622	70.4011	#	OT
1250	244	5	0.4238	2.65379	1.31301	70.786102	#	HT
1251	244	5	0.4238	2.76068	2.51788	69.689102	#	HT
1252	245	4	-0.8476	22.7428	20.7213	81.876099	#	OT
1253	245	5	0.4238	22.771999	20.4757	80.907105	#	HT
1254	245	5	0.4238	23.6189	21.121401	82.145104	#	HT
1255	246	4	-0.8476	8.88131	13.455	23.032906	#	OT
1256	246	5	0.4238	8.55943	12.5097	22.980805	#	HT
1257	246	5	0.4238	9.75771	13.4827	23.513703	#	HT
1258	247	4	-0.8476	0.11989	12.8917	28.987999	#	OT
1259	247	5	0.4238	0.958265	12.6895	29.494202	#	HT
1260	247	5	0.4238	25.156601	12.0368	28.759903	#	HT
1261	249	4	-0.8476	21.0536	7.5782	76.688103	#	OT
1262	249	5	0.4238	21.806499	7.12442	77.164101	#	HT
1263	249	5	0.4238	21.218	7.54979	75.702103	#	HT
1264	250	4	-0.8476	4.35226	16.6772	0.996201	#	OT
1265	250	5	0.4238	4.80469	17.547001	1.193203	#	HT
1266	250	5	0.4238	3.3609	16.798201	1.0471	#	HT
1267	251	4	-0.8476	14.3625	12.3714	24.546105	#	OT
1268	251	5	0.4238	15.0249	11.7717	24.995102	#	HT
1269	251	5	0.4238	14.5303	13.3182	24.820603	#	HT
1270	252	4	-0.8476	4.62776	0.359829	32.172005	#	OT
1271	252	5	0.4238	5.24367	29.042299	32.358002	#	HT
1272	252	5	0.4238	4.98509	1.18769	32.604401	#	HT
1273	253	4	-0.8476	15.1082	5.96984	36.634606	#	OT
1274	253	5	0.4238	15.8083	5.66067	35.990799	#	HT
1275	253	5	0.4238	14.6788	5.17664	37.0663	#	HT
1276	254	4	-0.8476	18.005199	19.223499	81.948105	#	OT
1277	254	5	0.4238	18.459999	20.040899	82.301102	#	HT
1278	254	5	0.4238	17.7106	18.649099	82.711106	#	HT
1279	255	4	-0.8476	23.778	5.08064	10.359402	#	OT
1280	255	5	0.4238	23.6705	4.11433	10.125603	#	HT
1281	255	5	0.4238	22.915701	5.56058	10.197701	#	HT
1282	256	4	-0.8476	22.707399	13.5399	70.161102	#	OT
1283	256	5	0.4238	22.787901	12.5442	70.2071	#	HT
1284	256	5	0.4238	22.1672	13.7938	69.358101	#	HT
1285	257	4	-0.8476	22.674999	23.261499	36.146904	#	OT
1286	257	5	0.4238	23.5802	22.858999	36.283303	#	HT
1287	257	5	0.4238	22.011801	22.7969	36.733704	#	HT
1288	258	4	-0.8476	10.3092	4.62519	78.470101	#	OT
1289	258	5	0.4238	9.39637	4.22144	78.408104	#	HT
1290	258	5	0.4238	10.2765	5.57287	78.1521	#	HT
1291	259	4	-0.8476	2.85797	13.5117	0.897103	#	OT
1292	259	5	0.4238	1.97563	13.724	1.317101	#	HT
1293	259	5	0.4238	2.88436	12.5434	0.648403	#	HT
1294	260	4	-0.8476	6.61129	16.065399	10.1026	#	OT
1295	260	5	0.4238	7.2096	16.422199	10.820103	#	HT
1296	260	5	0.4238	5.90005	15.4957	10.514504	#	HT
1297	261	4	-0.8476	22.4021	24.785	13.687401	#	OT
1298	261	5	0.4238	22.902201	24.453699	12.887402	#	HT
1299	261	5	0.4238	22.5954	25.7568	13.822403	#	HT
1300	262	4	-0.8476	25.2022	10.7429	62.837105	#	OT
1301	262	5	0.4238	24.52	10.0931	63.173104	#	HT
1302	262	5	0.4238	24.8631	11.1831	62.006104	#	HT
1303	263	4	-0.8476	13.445	28.974001	15.9445	#	OT
1304	263	5	0.4238	13.905	0.174858	15.338303	#	HT
1305	263	5	0.4238	12.4587	29.1378	15.921204	#	HT
1306	264	4	-0.8476	15.3744	27.159201	1.401501	#	OT
1307	264	5	0.4238	16.208799	26.9	0.9151	#	HT
1308	264	5	0.4238	15.5772	27.2733	2.374001	#	HT
1309	265	4	-0.8476	11.2835	16.8559	74.6101	#	OT
1310	265	5	0.4238	10.5926	17.507401	74.923104	#	HT
1311	265	5	0.4238	10.8345	16.0868	74.155106	#	HT
1312	266	4	-0.8476	17.650299	13.3669	64.347099	#	OT
1313	266	5	0.4238	16.9939	13.5161	65.087105	#	HT
1314	266	5	0.4238	18.4547	12.8934	64.706101	#	HT
1315	267	4	-0.8476	11.681	2.85282	9.782601	#	OT
1316	267	5	0.4238	10.9651	3.52225	9.584103	#	HT
1317	267	5	0.4238	12.4471	2.98781	9.154202	#	HT
1318	268	4	-0.8476	22.658899	24.5371	1.067204	#	OT
1319	268	5	0.4238	21.7652	24.944	0.878304	#	HT
1320	268	5	0.4238	22.5357	23.603399	1.403401	#	HT
1321	269	4	-0.8476	7.90712	8.73101	7.4403	#	OT
1322	269	5	0.4238	6.97804	9.09796	7.486702	#	HT
1323	269	5	0.4238	8.16389	8.3598	8.332604	#	HT
1324	270	4	-0.8476	8.34996	14.3235	26.945198	#	OT
1325	270	5	0.4238	8.97184	15.0452	26.641205	#	HT
1326	270	5	0.4238	8.84819	13.6745	27.520104	#	HT
1327	271	4	-0.8476	13.7497	16.5917	21.057202	#	OT
1328	271	5	0.4238	14.6484	16.1656	20.953602	#	HT
1329	271	5	0.4238	13.6993	17.052	21.943501	#	HT
1330	272	4	-0.8476	1.11678	3.14967	31.638603	#	OT
1331	272	5	0.4238	0.625813	3.86689	32.133103	#	HT
1332	272	5	0.4238	1.19733	2.33963	32.219399	#	HT
1333	273	4	-0.8476	11.4642	1.07214	58.716103	#	OT
1334	273	5	0.4238	11.5908	0.107827	58.948105	#	HT
1335	273	5	0.4238	10.5351	1.35367	58.956101	#	HT
1336	274	4	-0.8476	9.95512	4.56001	30.658005	#	OT
1337	274	5	0.4238	10.2158	5.20073	29.935799	#	HT
1338	274	5	0.4238	10.7221	4.43779	31.288002	#	HT
1339	275	4	-0.8476	2.35708	8.35606	79.981102	#	OT
1340	275	5	0.4238	1.40634	8.31154	80.287102	#	HT
1341	275	5	0.4238	2.68495	7.43368	79.7761	#	HT
1342	276	4	-0.8476	5.62786	17.7631	7.480702	#	OT
1343	276	5	0.4238	5.82845	18.742201	7.511502	#	HT
1344	276	5	0.4238	5.18234	17.541201	6.613301	#	HT
1345	277	4	-0.8476	21.4657	25.1185	26.018303	#	OT
1346	277	5	0.4238	21.117901	24.2194	25.752403	#	HT
1347	277	5	0.4238	20.7922	25.5788	26.596604	#	HT
1348	278	4	-0.8476	0.522346	3.34919	51.283104	#	OT
1349	278	5	0.4238	0.338472	4.18077	50.759003	#	HT
1350	278	5	0.4238	0.993437	2.686	50.7015	#	HT
1351	279	4	-0.8476	9.48969	10.8472	58.4581	#	OT
1352	279	5	0.4238	10.4078	11.2224	58.586106	#	HT
1353	279	5	0.4238	9.3163	10.147	59.1511	#	HT
1354	280	4	-0.8476	23.4482	8.49141	0.823303	#	OT
1355	280	5	0.4238	23.173901	8.47699	1.784802	#	HT
1356	280	5	0.4238	23.291201	7.59062	0.418404	#	HT
1357	281	4	-0.8476	10.5404	1.69897	83.822106	#	OT
1358	281	5	0.4238	9.88019	2.09179	84.462105	#	HT
1359	281	5	0.4238	11.2195	2.39098	83.577103	#	HT
1360	282	4	-0.8476	20.159901	2.26699	55.576103	#	OT
1361	282	5	0.4238	20.390301	1.33709	55.289398	#	HT
1362	282	5	0.4238	19.9802	2.82969	54.769203	#	HT
1363	283	4	-0.8476	20.201799	20.1	76.024101	#	OT
1364	283	5	0.4238	20.536301	20.782801	76.673104	#	HT
1365	283	5	0.4238	20.2913	20.4538	75.093102	#	HT
1366	285	4	-0.8476	11.5249	6.13597	28.722702	#	OT
1367	285	5	0.4238	12.1723	6.53332	29.3731	#	HT
1368	285	5	0.4238	10.6721	6.65798	28.740105	#	HT
1369	286	4	-0.8476	24.755899	18.9494	41.528404	#	OT
1370	286	5	0.4238	24.1327	18.1891	41.711106	#	HT
1371	286	5	0.4238	24.669901	19.632601	42.2537	#	HT
1372	287	4	-0.8476	22.7017	18.614799	16.864903	#	OT
1373	287	5	0.4238	23.5182	18.3899	17.396801	#	HT
1374	287	5	0.4238	22.858101	18.389999	15.903103	#	HT
1375	288	4	-0.8476	5.14748	15.1643	76.641098	#	OT
1376	288	5	0.4238	5.07317	15.5735	75.731102	#	HT
1377	288	5	0.4238	4.23416	14.9416	76.982102	#	HT
1378	289	4	-0.8476	9.2154	20.467899	24.282006	#	OT
1379	289	5	0.4238	9.0487	20.5082	25.267105	#	HT
1380	289	5	0.4238	10.1427	20.7878	24.087403	#	HT
1381	290	4	-0.8476	15.5492	16.874901	73.2621	#	OT
1382	290	5	0.4238	15.5066	17.148001	74.223099	#	HT
1383	290	5	0.4238	16.247601	17.415199	72.793099	#	HT
1384	291	4	-0.8476	4.97694	3.95718	9.529202	#	OT
1385	291	5	0.4238	5.36174	3.23544	8.9538	#	HT
1386	291	5	0.4238	4.82696	4.77818	8.978302	#	HT
1387	292	4	-0.8476	21.497299	26.291401	6.548203	#	OT
1388	292	5	0.4238	22.3666	26.324699	7.041401	#	HT
1389	292	5	0.4238	20.9704	27.118099	6.745201	#	HT
1390	293	4	-0.8476	10.8664	9.13942	43.106301	#	OT
1391	293	5	0.4238	10.254	8.88305	43.854202	#	HT
1392	293	5	0.4238	10.3426	9.21563	42.257904	#	HT
1393	294	4	-0.8476	8.28869	1.34474	59.115105	#	OT
1394	294	5	0.4238	7.63756	1.95315	59.5691	#	HT
1395	294	5	0.4238	8.17267	0.414041	59.462105	#	HT
1396	295	4	-0.8476	5.90177	10.6513	12.484204	#	OT
1397	295	5	0.4238	6.20247	11.0272	11.607601	#	HT
1398	295	5	0.4238	4.90406	10.5843	12.493401	#	HT
1399	297	4	-0.8476	11.112	17.918501	16.297203	#	OT
1400	297	5	0.4238	11.1485	17.821501	15.302601	#	HT
1401	297	5	0.4238	11.0311	17.014799	16.717503	#	HT
1402	298	4	-0.8476	21.8505	7.12132	14.427601	#	OT
1403	298	5	0.4238	22.749701	7.53088	14.273403	#	HT
1404	298	5	0.4238	21.871201	6.57818	15.267002	#	HT
1405	299	4	-0.8476	1.94509	8.17189	70.5401	#	OT
1406	299	5	0.4238	2.88113	7.98226	70.837105	#	HT
1407	299	5	0.4238	1.89259	9.10193	70.176102	#	HT
1408	300	4	-0.8476	15.9804	0.276074	4.850002	#	OT
1409	300	5	0.4238	16.270599	0.778585	5.664501	#	HT
1410	300	5	0.4238	15.0436	0.535039	4.614804	#	HT
1411	301	4	-0.8476	25.0788	21.792801	36.606606	#	OT
1412	301	5	0.4238	0.499973	21.623199	36.263703	#	HT
1413	301	5	0.4238	25.1019	21.868	37.603501	#	HT
1414	302	4	-0.8476	6.64415	3.57929	82.149101	#	OT
1415	302	5	0.4238	7.23209	2.77226	82.094101	#	HT
1416	302	5	0.4238	5.69196	3.2916	82.252098	#	HT
1417	303	4	-0.8476	21.7267	0.825861	78.614105	#	OT
1418	303	5	0.4238	20.951099	1.2389	78.1371	#	HT
1419	303	5	0.4238	22.139999	0.124251	78.034104	#	HT
1420	304	4	-0.8476	10.4069	16.924801	78.326103	#	OT
1421	304	5	0.4238	9.5733	17.304399	78.727104	#	HT
1422	304	5	0.4238	10.5642	17.339399	77.4301	#	HT
1423	306	4	-0.8476	20.160601	3.42226	7.913101	#	OT
1424	306	5	0.4238	20.777201	4.20838	7.955803	#	HT
1425	306	5	0.4238	19.217899	3.74272	7.819603	#	HT
1426	307	4	-0.8476	9.04584	2.71838	28.8526	#	OT
1427	307	5	0.4238	9.65147	3.21078	29.477699	#	HT
1428	307	5	0.4238	9.50503	2.59315	27.973206	#	HT
1429	308	4	-0.8476	3.62789	4.83948	23.176605	#	OT
1430	308	5	0.4238	3.54841	5.83509	23.226006	#	HT
1431	308	5	0.4238	2.75638	4.42232	23.434303	#	HT
1432	309	4	-0.8476	6.10387	5.70195	23.946099	#	OT
1433	309	5	0.4238	5.67866	6.26527	24.654503	#	HT
1434	309	5	0.4238	7.07785	5.92057	23.886299	#	HT
1435	310	4	-0.8476	1.43688	28.9076	39.600502	#	OT
1436	310	5	0.4238	2.09024	28.6542	40.313904	#	HT
1437	310	5	0.4238	1.74518	0.296497	39.148201	#	HT
1438	311	4	-0.8476	10.5019	14.8954	5.3745	#	OT
1439	311	5	0.4238	9.5575	15.0316	5.075302	#	HT
1440	311	5	0.4238	11.0963	14.8123	4.5746	#	HT
1441	312	4	-0.8476	18.0779	17.3992	60.821099	#	OT
1442	312	5	0.4238	18.772499	18.035299	61.157105	#	HT
1443	312	5	0.4238	17.694	16.8881	61.590103	#	HT
1444	313	4	-0.8476	20.4746	17.3943	28.800003	#	OT
1445	313	5	0.4238	20.7616	18.351101	28.754898	#	HT
1446	313	5	0.4238	20.8407	16.9753	29.630905	#	HT
1447	314	4	-0.8476	2.27555	18.298401	31.769303	#	OT
1448	314	5	0.4238	2.0624	17.329599	31.8956	#	HT
1449	314	5	0.4238	2.62769	18.6766	32.625405	#	HT
1450	315	4	-0.8476	17.8169	13.7497	60.6941	#	OT
1451	315	5	0.4238	18.283899	14.1856	59.925102	#	HT
1452	315	5	0.4238	17.602699	12.8014	60.460098	#	HT
1453	316	4	-0.8476	17.319799	1.86509	35.212204	#	OT
1454	316	5	0.4238	18.002399	1.79871	34.484406	#	HT
1455	316	5	0.4238	17.500099	2.67852	35.765206	#	HT
1456	317	4	-0.8476	2.74874	17.5672	21.854	#	OT
1457	317	5	0.4238	3.51905	16.970699	22.0793	#	HT
1458	317	5	0.4238	2.28723	17.221399	21.037003	#	HT
1459	318	4	-0.8476	12.6909	22.6933	9.167801	#	OT
1460	318	5	0.4238	12.5776	21.950399	9.827603	#	HT
1461	318	5	0.4238	12.8304	23.5546	9.656304	#	HT
1462	319	4	-0.8476	21.549999	6.06855	61.210098	#	OT
1463	319	5	0.4238	21.0891	5.47354	60.552101	#	HT
1464	319	5	0.4238	22.066401	5.51022	61.859101	#	HT
1465	320	4	-0.8476	13.215	21.0208	18.012001	#	OT
1466	320	5	0.4238	13.9823	21.2675	18.603901	#	HT
1467	320	5	0.4238	12.7003	21.8442	17.773003	#	HT
1468	321	4	-0.8476	18.7829	10.3303	73.336106	#	OT
1469	321	5	0.4238	18.6418	11.32	73.357102	#	HT
1470	321	5	0.4238	18.2006	9.89626	74.024101	#	HT
1471	322	4	-0.8476	8.19656	13.7111	57.993202	#	OT
1472	322	5	0.4238	8.63662	12.8206	58.108803	#	HT
1473	322	5	0.4238	8.86186	14.3682	57.638802	#	HT
1474	323	4	-0.8476	2.05657	14.2871	35.500405	#	OT
1475	323	5	0.4238	2.38695	13.4379	35.9123	#	HT
1476	323	5	0.4238	1.93646	14.1556	34.516403	#	HT
1477	324	4	-0.8476	9.43073	21.8829	43.286904	#	OT
1478	324	5	0.4238	9.13868	22.409	42.488205	#	HT
1479	324	5	0.4238	9.59845	22.504299	44.0523	#	HT
1480	325	4	-0.8476	4.35761	23.9662	1.031601	#	OT
1481	325	5	0.4238	5.29962	24.2855	0.928204	#	HT
1482	325	5	0.4238	3.73161	24.6448	0.647301	#	HT
1483	326	4	-0.8476	2.38614	12.1461	56.018402	#	OT
1484	326	5	0.4238	3.24341	12.4743	55.621704	#	HT
1485	326	5	0.4238	2.50735	11.2089	56.345299	#	HT
1486	328	4	-0.8476	24.1583	11.9625	13.7514	#	OT
1487	328	5	0.4238	24.848499	11.7082	14.428902	#	HT
1488	328	5	0.4238	24.604	12.3939	12.967102	#	HT
1489	329	4	-0.8476	7.33011	11.2403	36.389603	#	OT
1490	329	5	0.4238	8.32374	11.156	36.464302	#	HT
1491	329	5	0.4238	6.89724	10.7782	37.163605	#	HT
1492	330	4	-0.8476	2.4046	22.121799	62.419106	#	OT
1493	330	5	0.4238	3.04987	21.894699	61.690102	#	HT
1494	330	5	0.4238	1.47728	22.152599	62.046105	#	HT
1495	331	4	-0.8476	4.82772	26.571899	25.593804	#	OT
1496	331	5	0.4238	4.58395	27.383699	25.063103	#	HT
1497	331	5	0.4238	4.00516	26.1894	26.014504	#	HT
1498	332	4	-0.8476	16.4188	21.2029	51.358505	#	OT
1499	332	5	0.4238	15.6099	20.6705	51.109101	#	HT
1500	332	5	0.4238	17.2281	20.6168	51.321099	#	HT
1501	333	4	-0.8476	20.3855	7.65408	23.511299	#	OT
1502	333	5	0.4238	20.7479	8.37435	24.102799	#	HT
1503	333	5	0.4238	20.193001	6.83919	24.057999	#	HT
1504	334	4	-0.8476	2.64255	15.6487	82.496102	#	OT
1505	334	5	0.4238	2.59591	14.6537	82.585098	#	HT
1506	334	5	0.4238	3.43528	15.8969	81.939102	#	HT
1507	335	4	-0.8476	6.67932	27.784	32.068802	#	OT
1508	335	5	0.4238	6.80767	27.7257	31.078804	#	HT
1509	335	5	0.4238	7.48131	28.213301	32.4842	#	HT
1510	336	4	-0.8476	6.08192	22.777	25.789505	#	OT
1511	336	5	0.4238	5.57088	23.218399	26.527001	#	HT
1512	336	5	0.4238	6.26477	21.8248	26.034203	#	HT
1513	337	4	-0.8476	8.64778	10.8463	31.153504	#	OT
1514	337	5	0.4238	9.12308	11.7079	30.975701	#	HT
1515	337	5	0.4238	8.99434	10.4431	32.000504	#	HT
1516	338	4	-0.8476	14.4386	13.0439	27.407204	#	OT
1517	338	5	0.4238	15.2031	12.5874	27.862206	#	HT
1518	338	5	0.4238	14.7698	13.8644	26.9413	#	HT
1519	339	4	-0.8476	13.8857	10.1923	35.167999	#	OT
1520	339	5	0.4238	13.7064	9.30912	35.601402	#	HT
1521	339	5	0.4238	14.0494	10.0569	34.190804	#	HT
1522	340	4	-0.8476	7.30803	4.60949	10.978604	#	OT
1523	340	5	0.4238	8.21441	4.93985	10.715302	#	HT
1524	340	5	0.4238	6.88448	4.14348	10.201801	#	HT
1525	341	4	-0.8476	13.3038	13.5948	66.620102	#	OT
1526	341	5	0.4238	12.8581	13.0134	65.939102	#	HT
1527	341	5	0.4238	12.8355	14.4773	66.663101	#	HT
1528	342	4	-0.8476	24.2864	7.0478	84.794106	#	OT
1529	342	5	0.4238	24.2024	7.64897	83.9991	#	HT
1530	342	5	0.4238	25.197399	7.14922	85.1941	#	HT
1531	343	4	-0.8476	2.51457	21.5893	10.2528	#	OT
1532	343	5	0.4238	2.33061	21.3922	11.215801	#	HT
1533	343	5	0.4238	1.70125	21.382601	9.709004	#	HT
1534	344	4	-0.8476	6.91456	24.7801	1.442902	#	OT
1535	344	5	0.4238	7.01522	24.629299	2.4263	#	HT
1536	344	5	0.4238	7.81509	24.7591	1.008602	#	HT
1537	345	4	-0.8476	16.2659	28.489799	31.952202	#	OT
1538	345	5	0.4238	17.245199	28.650499	32.075104	#	HT
1539	345	5	0.4238	15.7556	29.2953	32.253601	#	HT
1540	346	4	-0.8476	16.102301	10.4564	25.531204	#	OT
1541	346	5	0.4238	15.9325	9.58046	25.079605	#	HT
1542	346	5	0.4238	16.0935	10.3274	26.522804	#	HT
1543	347	4	-0.8476	20.630301	27.907499	66.487099	#	OT
1544	347	5	0.4238	20.1294	28.121901	65.649101	#	HT
1545	347	5	0.4238	20.0686	27.320499	67.070099	#	HT
1546	348	4	-0.8476	7.67018	24.3228	9.661404	#	OT
1547	348	5	0.4238	7.03806	23.9368	8.989502	#	HT
1548	348	5	0.4238	8.46548	23.7236	9.753502	#	HT
1549	349	4	-0.8476	4.82024	26.2686	59.644104	#	OT
1550	349	5	0.4238	3.8258	26.263399	59.539101	#	HT
1551	349	5	0.4238	5.24708	25.962999	58.793099	#	HT
1552	350	4	-0.8476	17.9848	10.9948	59.9151	#	OT
1553	350	5	0.4238	18.208799	10.1872	60.460098	#	HT
1554	350	5	0.4238	17.393	10.7294	59.154099	#	HT
1555	351	4	-0.8476	11.837	5.37384	73.104103	#	OT
1556	351	5	0.4238	11.9448	5.92773	72.278099	#	HT
1557	351	5	0.4238	12.6273	5.50901	73.701103	#	HT
1558	352	4	-0.8476	14.625	6.40704	58.991104	#	OT
1559	352	5	0.4238	14.9066	6.4077	58.031304	#	HT
1560	352	5	0.4238	15.4213	6.57439	59.572106	#	HT
1561	353	4	-0.8476	7.95589	15.2694	4.278202	#	OT
1562	353	5	0.4238	7.50571	16.1623	4.2789	#	HT
1563	353	5	0.4238	8.04589	14.9422	3.337601	#	HT
1564	354	4	-0.8476	9.83444	21.440599	69.482102	#	OT
1565	354	5	0.4238	9.61988	22.386	69.236099	#	HT
1566	354	5	0.4238	9.09366	21.064501	70.039101	#	HT
1567	355	4	-0.8476	9.98129	25.8584	62.673104	#	OT
1568	355	5	0.4238	10.6064	26.563801	62.339104	#	HT
1569	355	5	0.4238	9.57668	26.154301	63.539101	#	HT
1570	356	4	-0.8476	13.6704	3.97225	50.806404	#	OT
1571	356	5	0.4238	14.3064	4.59273	51.265206	#	HT
1572	356	5	0.4238	13.4172	3.23309	51.430603	#	HT
1573	357	4	-0.8476	19.933701	14.2714	62.275101	#	OT
1574	357	5	0.4238	19.094299	13.9911	61.809105	#	HT
1575	357	5	0.4238	19.7132	14.5887	63.197106	#	HT
1576	358	4	-0.8476	11.6609	22.613199	4.374802	#	OT
1577	358	5	0.4238	11.7637	22.685301	3.382702	#	HT
1578	358	5	0.4238	11.1005	23.3715	4.707802	#	HT
1579	359	4	-0.8476	8.10206	22.4492	19.413803	#	OT
1580	359	5	0.4238	8.89917	22.673599	18.853203	#	HT
1581	359	5	0.4238	8.26849	22.7325	20.358303	#	HT
1582	360	4	-0.8476	9.79049	1.60253	12.044403	#	OT
1583	360	5	0.4238	8.88893	1.38273	11.671704	#	HT
1584	360	5	0.4238	9.70396	1.82885	13.014603	#	HT
1585	361	4	-0.8476	13.6793	26.072399	58.684105	#	OT
1586	361	5	0.4238	13.3806	25.1861	59.038101	#	HT
1587	361	5	0.4238	14.6136	26.2558	58.990105	#	HT
1588	362	4	-0.8476	11.3675	17.039301	13.623902	#	OT
1589	362	5	0.4238	11.1273	16.0686	13.625302	#	HT
1590	362	5	0.4238	10.9419	17.4869	12.837403	#	HT
1591	363	4	-0.8476	7.2442	5.35655	13.548302	#	OT
1592	363	5	0.4238	6.46973	5.96256	13.729801	#	HT
1593	363	5	0.4238	7.27099	5.13255	12.574002	#	HT
1594	364	4	-0.8476	3.92086	4.37165	0.733502	#	OT
1595	364	5	0.4238	2.94731	4.45345	0.9468	#	HT
1596	364	5	0.4238	4.17184	3.40477	0.687103	#	HT
1597	365	4	-0.8476	1.92027	2.00025	38.861099	#	OT
1598	365	5	0.4238	0.985464	2.18054	39.167099	#	HT
1599	365	5	0.4238	2.56558	2.45247	39.476799	#	HT
1600	366	4	-0.8476	13.0913	9.04073	63.339104	#	OT
1601	366	5	0.4238	13.0584	8.07167	63.584099	#	HT
1602	366	5	0.4238	14.0292	9.29258	63.101105	#	HT
1603	367	4	-0.8476	17.6043	28.0049	84.503105	#	OT
1604	367	5	0.4238	16.6422	27.745001	84.586106	#	HT
1605	367	5	0.4238	17.948299	27.7281	83.606102	#	HT
1606	368	4	-0.8476	7.50892	0.254711	21.602402	#	OT
1607	368	5	0.4238	8.38311	0.110473	21.138802	#	HT
1608	368	5	0.4238	6.84487	0.6264	20.953701	#	HT
1609	370	4	-0.8476	16.994101	23.5418	5.857601	#	OT
1610	370	5	0.4238	16.377501	23.089899	5.213001	#	HT
1611	370	5	0.4238	16.495701	24.2535	6.3526	#	HT
1612	371	4	-0.8476	17.2279	23.911501	9.965504	#	OT
1613	371	5	0.4238	18.2265	23.9002	9.914204	#	HT
1614	371	5	0.4238	16.8631	23.0804	9.545902	#	HT
1615	372	4	-0.8476	5.57067	19.065001	1.391503	#	OT
1616	372	5	0.4238	5.00735	19.8741	1.559101	#	HT
1617	372	5	0.4238	6.37713	19.3246	0.860203	#	HT
1618	373	4	-0.8476	24.4914	20.3468	1.122601	#	OT
1619	373	5	0.4238	23.7586	20.984699	1.359402	#	HT
1620	373	5	0.4238	24.0942	19.486401	0.803402	#	HT
1621	374	4	-0.8476	3.63012	3.22518	18.217301	#	OT
1622	374	5	0.4238	4.39084	2.59227	18.361302	#	HT
1623	374	5	0.4238	3.31808	3.16111	17.269402	#	HT
1624	375	4	-0.8476	6.82518	9.29259	58.326103	#	OT
1625	375	5	0.4238	7.57951	9.47609	58.9571	#	HT
1626	375	5	0.4238	6.11195	9.98249	58.450104	#	HT
1627	376	4	-0.8476	10.2891	13.1426	1.374001	#	OT
1628	376	5	0.4238	11.0644	13.5713	1.837803	#	HT
1629	376	5	0.4238	10.318	13.3667	0.399903	#	HT
1630	377	4	-0.8476	22.0441	12.0583	44.734604	#	OT
1631	377	5	0.4238	21.197201	11.6763	44.364701	#	HT
1632	377	5	0.4238	22.7589	12.0225	44.036202	#	HT
1633	378	4	-0.8476	14.505	22.3174	44.007004	#	OT
1634	378	5	0.4238	14.8324	23.1765	44.400299	#	HT
1635	378	5	0.4238	15.1054	21.570101	44.291802	#	HT
1636	379	4	-0.8476	14.7455	3.58942	5.375	#	OT
1637	379	5	0.4238	14.1371	4.27432	4.974201	#	HT
1638	379	5	0.4238	15.4838	3.38281	4.732903	#	HT
1639	380	4	-0.8476	22.025801	21.2227	17.021301	#	OT
1640	380	5	0.4238	22.7402	21.622499	17.595501	#	HT
1641	380	5	0.4238	22.237301	20.2609	16.847302	#	HT
1642	381	4	-0.8476	8.77352	19.9862	0.761704	#	OT
1643	381	5	0.4238	9.47617	20.68	0.919701	#	HT
1644	381	5	0.4238	9.18432	19.076401	0.8204	#	HT
1645	382	4	-0.8476	20.944099	8.68549	70.066101	#	OT
1646	382	5	0.4238	20.0821	9.1532	70.2621	#	HT
1647	382	5	0.4238	20.8384	8.11999	69.2481	#	HT
1648	383	4	-0.8476	1.14863	4.05963	1.036801	#	OT
1649	383	5	0.4238	0.528235	4.07877	1.820801	#	HT
1650	383	5	0.4238	0.959903	3.24925	0.482102	#	HT
1651	384	4	-0.8476	10.7639	23.7306	23.067902	#	OT
1652	384	5	0.4238	10.8629	23.244801	22.199402	#	HT
1653	384	5	0.4238	11.6431	23.7446	23.544106	#	HT
1654	385	4	-0.8476	12.8167	29.392401	56.429299	#	OT
1655	385	5	0.4238	12.1843	0.416606	57.043404	#	HT
1656	385	5	0.4238	12.3235	29.0835	55.616104	#	HT
1657	386	4	-0.8476	8.75898	20.0639	26.8788	#	OT
1658	386	5	0.4238	9.24651	19.2234	27.115105	#	HT
1659	386	5	0.4238	7.97956	20.1814	27.494202	#	HT
1660	387	4	-0.8476	10.5053	3.70666	74.9011	#	OT
1661	387	5	0.4238	10.9735	4.25404	74.2071	#	HT
1662	387	5	0.4238	11.1125	3.57025	75.683106	#	HT
1663	388	4	-0.8476	1.53226	25.705601	66.574105	#	OT
1664	388	5	0.4238	1.66662	25.1616	65.746102	#	HT
1665	388	5	0.4238	2.10289	26.5256	66.531105	#	HT
1666	389	4	-0.8476	6.36269	11.7769	9.968903	#	OT
1667	389	5	0.4238	5.7494	12.5492	10.134403	#	HT
1668	389	5	0.4238	5.93912	11.1488	9.316101	#	HT
1669	390	4	-0.8476	11.3888	5.37986	38.613404	#	OT
1670	390	5	0.4238	10.729	5.12111	39.318901	#	HT
1671	390	5	0.4238	11.4017	6.37522	38.518105	#	HT
1672	391	4	-0.8476	22.2015	5.12356	33.685005	#	OT
1673	391	5	0.4238	22.035299	5.19433	34.668602	#	HT
1674	391	5	0.4238	21.6863	4.35056	33.314705	#	HT
1675	393	4	-0.8476	3.82498	24.809099	3.883003	#	OT
1676	393	5	0.4238	3.94181	24.261999	3.0541	#	HT
1677	393	5	0.4238	4.71667	24.9648	4.308003	#	HT
1678	394	4	-0.8476	13.8052	10.2319	23.081505	#	OT
1679	394	5	0.4238	14.5522	9.56727	23.093399	#	HT
1680	394	5	0.4238	14.1237	11.0984	23.465904	#	HT
1681	395	4	-0.8476	9.05649	26.190201	59.191101	#	OT
1682	395	5	0.4238	8.67185	25.6567	58.437103	#	HT
1683	395	5	0.4238	9.67152	25.613001	59.728104	#	HT
1684	396	4	-0.8476	23.194201	12.918	1.464401	#	OT
1685	396	5	0.4238	23.9375	12.2662	1.313702	#	HT
1686	396	5	0.4238	22.410299	12.4429	1.864002	#	HT
1687	397	4	-0.8476	25.3396	17.527399	5.747601	#	OT
1688	397	5	0.4238	0.159183	16.6544	6.113701	#	HT
1689	397	5	0.4238	0.105018	18.267099	6.364903	#	HT
1690	398	4	-0.8476	12.4273	20.776899	55.266701	#	OT
1691	398	5	0.4238	12.1024	21.6388	55.656105	#	HT
1692	398	5	0.4238	12.8088	20.2057	55.993401	#	HT
1693	399	4	-0.8476	3.38764	10.0812	13.138203	#	OT
1694	399	5	0.4238	2.93278	10.9114	12.815903	#	HT
1695	399	5	0.4238	3.55303	10.1522	14.121903	#	HT
1696	400	4	-0.8476	15.933	13.6412	66.3191	#	OT
1697	400	5	0.4238	14.9427	13.6752	66.184105	#	HT
1698	400	5	0.4238	16.155899	12.9149	66.969101	#	HT
1699	401	4	-0.8476	2.31856	7.70594	26.855103	#	OT
1700	401	5	0.4238	2.02888	6.86392	26.400101	#	HT
1701	401	5	0.4238	3.31437	7.78454	26.808205	#	HT
1702	402	4	-0.8476	13.6565	12.6248	20.600304	#	OT
1703	402	5	0.4238	13.5215	13.6071	20.470703	#	HT
1704	402	5	0.4238	14.4616	12.4717	21.173302	#	HT
1705	403	4	-0.8476	24.6458	28.689699	8.488201	#	OT
1706	403	5	0.4238	24.320101	29.046301	7.612602	#	HT
1707	403	5	0.4238	0.085543	28.9879	8.639702	#	HT
1708	404	4	-0.8476	21.6705	9.24704	25.544502	#	OT
1709	404	5	0.4238	22.517599	9.48723	25.070404	#	HT
1710	404	5	0.4238	21.238899	10.0774	25.897003	#	HT
1711	405	4	-0.8476	10.5138	17.037901	68.267105	#	OT
1712	405	5	0.4238	11.0924	16.591801	67.584099	#	HT
1713	405	5	0.4238	10.3164	17.9741	67.976105	#	HT
1714	406	4	-0.8476	0.304194	11.0999	15.790302	#	OT
1715	406	5	0.4238	1.27553	10.8803	15.881104	#	HT
1716	406	5	0.4238	25.2593	10.3106	16.067703	#	HT
1717	407	4	-0.8476	14.5497	6.17737	21.2724	#	OT
1718	407	5	0.4238	15.2527	6.60237	21.842701	#	HT
1719	407	5	0.4238	13.6654	6.60516	21.459103	#	HT
1720	408	4	-0.8476	3.71496	9.38592	81.954102	#	OT
1721	408	5	0.4238	4.52848	8.82216	81.811104	#	HT
1722	408	5	0.4238	3.04865	9.19832	81.232102	#	HT
1723	409	4	-0.8476	15.0348	23.9503	63.085098	#	OT
1724	409	5	0.4238	14.6209	24.0853	63.9851	#	HT
1725	409	5	0.4238	14.5757	23.195299	62.617104	#	HT
1726	410	4	-0.8476	17.8522	25.5506	12.187	#	OT
1727	410	5	0.4238	18.5755	24.919001	12.466004	#	HT
1728	410	5	0.4238	17.9884	26.433201	12.636902	#	HT
1729	411	4	-0.8476	11.942	11.0293	39.055504	#	OT
1730	411	5	0.4238	12.0411	11.5115	38.185005	#	HT
1731	411	5	0.4238	11.4853	10.1532	38.9011	#	HT
1732	412	4	-0.8476	15.3515	9.02505	10.694802	#	OT
1733	412	5	0.4238	15.2104	8.11549	10.303902	#	HT
1734	412	5	0.4238	15.716	8.93659	11.621803	#	HT
1735	413	4	-0.8476	13.3422	23.0408	6.680103	#	OT
1736	413	5	0.4238	13.2665	22.7752	7.641201	#	HT
1737	413	5	0.4238	13.8443	23.902901	6.611103	#	HT
1738	414	4	-0.8476	1.74995	20.622801	69.754105	#	OT
1739	414	5	0.4238	1.0177	20.037001	69.407105	#	HT
1740	414	5	0.4238	1.36552	21.300699	70.381104	#	HT
1741	415	4	-0.8476	23.7577	26.044399	8.550701	#	OT
1742	415	5	0.4238	24.2973	26.870899	8.711102	#	HT
1743	415	5	0.4238	24.353399	25.242701	8.599701	#	HT
1744	416	4	-0.8476	1.90169	12.963	82.285103	#	OT
1745	416	5	0.4238	1.2975	13.2593	83.024101	#	HT
1746	416	5	0.4238	1.39274	12.379	81.6521	#	HT
1747	417	4	-0.8476	15.6102	4.03981	33.134102	#	OT
1748	417	5	0.4238	14.6707	4.18938	33.4422	#	HT
1749	417	5	0.4238	15.7365	3.07439	32.905998	#	HT
1750	418	4	-0.8476	9.31636	8.5828	59.515099	#	OT
1751	418	5	0.4238	9.75781	8.0811	58.771103	#	HT
1752	418	5	0.4238	9.16521	7.96725	60.288101	#	HT
1753	419	4	-0.8476	8.64229	10.8358	86.334107	#	OT
1754	419	5	0.4238	9.59736	10.9205	86.050102	#	HT
1755	419	5	0.4238	8.44818	9.8838	86.571106	#	HT
1756	420	4	-0.8476	18.441799	2.23343	30.074204	#	OT
1757	420	5	0.4238	17.9188	3.08573	30.065399	#	HT
1758	420	5	0.4238	18.616501	1.9593	31.019905	#	HT
1759	421	4	-0.8476	1.79128	14.2682	74.597099	#	OT
1760	421	5	0.4238	1.16365	14.9723	74.9291	#	HT
1761	421	5	0.4238	1.81575	14.2882	73.598099	#	HT
1762	422	4	-0.8476	15.9561	8.2561	86.229096	#	OT
1763	422	5	0.4238	16.316299	7.32906	86.3331	#	HT
1764	422	5	0.4238	16.691299	8.91783	86.376099	#	HT
1765	423	4	-0.8476	22.7402	21.3927	13.345402	#	OT
1766	423	5	0.4238	22.920601	20.439899	13.589604	#	HT
1767	423	5	0.4238	22.104	21.4245	12.574501	#	HT
1768	424	4	-0.8476	10.2843	26.101601	24.574501	#	OT
1769	424	5	0.4238	11.0739	26.651199	24.301399	#	HT
1770	424	5	0.4238	10.2105	26.096901	25.5718	#	HT
1771	425	4	-0.8476	8.34207	4.74253	15.986801	#	OT
1772	425	5	0.4238	8.00789	4.831	15.0485	#	HT
1773	425	5	0.4238	9.19898	4.22706	15.988301	#	HT
1774	426	4	-0.8476	15.7676	19.8738	72.251099	#	OT
1775	426	5	0.4238	16.6569	19.4189	72.205101	#	HT
1776	426	5	0.4238	15.8984	20.8396	72.475105	#	HT
1777	427	4	-0.8476	17.285601	20.6373	19.507202	#	OT
1778	427	5	0.4238	16.8424	20.035601	20.171704	#	HT
1779	427	5	0.4238	16.7061	21.435301	19.341801	#	HT
1780	428	4	-0.8476	13.0404	4.55764	60.264099	#	OT
1781	428	5	0.4238	13.2367	4.38677	61.230103	#	HT
1782	428	5	0.4238	13.6563	5.26587	59.919106	#	HT
1783	429	4	-0.8476	8.70078	22.372	37.275398	#	OT
1784	429	5	0.4238	8.70958	21.3901	37.464501	#	HT
1785	429	5	0.4238	8.0043	22.572599	36.586403	#	HT
1786	430	4	-0.8476	22.205099	1.33012	25.438004	#	OT
1787	430	5	0.4238	23.060699	0.856837	25.228401	#	HT
1788	430	5	0.4238	21.9797	1.95721	24.692398	#	HT
1789	431	4	-0.8476	8.75823	29.076599	26.726601	#	OT
1790	431	5	0.4238	9.20279	28.199499	26.908798	#	HT
1791	431	5	0.4238	8.37101	29.0688	25.804703	#	HT
1792	433	4	-0.8476	21.3304	8.60652	29.8237	#	OT
1793	433	5	0.4238	22.0886	9.15051	29.464104	#	HT
1794	433	5	0.4238	21.1682	8.85181	30.779503	#	HT
1795	435	4	-0.8476	13.6902	17.3248	1.105702	#	OT
1796	435	5	0.4238	13.2213	16.4639	1.303402	#	HT
1797	435	5	0.4238	14.616	17.132799	0.779801	#	HT
1798	436	4	-0.8476	0.82544	11.1906	80.469101	#	OT
1799	436	5	0.4238	0.808156	10.8099	79.545105	#	HT
1800	436	5	0.4238	25.413799	11.1341	80.870102	#	HT
1801	437	4	-0.8476	15.6227	8.11476	65.056099	#	OT
1802	437	5	0.4238	14.7769	8.20915	65.581101	#	HT
1803	437	5	0.4238	15.655	8.81904	64.347099	#	HT
1804	438	4	-0.8476	23.404301	5.64137	0.910504	#	OT
1805	438	5	0.4238	23.650299	5.07905	1.700001	#	HT
1806	438	5	0.4238	24.1187	5.56954	0.214501	#	HT
1807	439	4	-0.8476	5.94045	4.82301	21.3148	#	OT
1808	439	5	0.4238	6.82643	5.21596	21.068501	#	HT
1809	439	5	0.4238	5.32312	4.87479	20.529801	#	HT
1810	440	4	-0.8476	23.801399	12.6859	74.347099	#	OT
1811	440	5	0.4238	24.082199	13.5824	74.004105	#	HT
1812	440	5	0.4238	22.830601	12.7094	74.585098	#	HT
1813	441	4	-0.8476	13.7408	4.92417	18.867203	#	OT
1814	441	5	0.4238	13.6853	4.5313	17.949303	#	HT
1815	441	5	0.4238	12.819	5.11827	19.203003	#	HT
1816	442	4	-0.8476	13.5568	15.0802	84.910103	#	OT
1817	442	5	0.4238	13.9931	14.9228	84.024101	#	HT
1818	442	5	0.4238	12.7342	15.6344	84.782105	#	HT
1819	443	4	-0.8476	7.26987	3.20768	23.416802	#	OT
1820	443	5	0.4238	7.78196	3.42925	24.246605	#	HT
1821	443	5	0.4238	7.89639	2.85113	22.723702	#	HT
1822	444	4	-0.8476	13.3167	11.7488	78.764099	#	OT
1823	444	5	0.4238	13.515	12.1061	79.677101	#	HT
1824	444	5	0.4238	12.8518	12.4511	78.225105	#	HT
1825	445	4	-0.8476	23.285999	16.0366	27.3993	#	OT
1826	445	5	0.4238	23.440701	17.007401	27.582604	#	HT
1827	445	5	0.4238	23.3941	15.5161	28.2463	#	HT
1828	446	4	-0.8476	6.94956	22.553699	57.305306	#	OT
1829	446	5	0.4238	7.08292	22.445499	58.2901	#	HT
1830	446	5	0.4238	6.08178	23.0208	57.135803	#	HT
1831	447	4	-0.8476	3.35478	2.70479	41.0121	#	OT
1832	447	5	0.4238	4.12605	3.29747	41.244202	#	HT
1833	447	5	0.4238	2.93567	2.35903	41.851601	#	HT
1834	448	4	-0.8476	1.66543	7.26445	29.410904	#	OT
1835	448	5	0.4238	2.40365	6.83074	29.927605	#	HT
1836	448	5	0.4238	1.98029	7.4633	28.482804	#	HT
1837	449	4	-0.8476	11.3488	22.410801	75.292099	#	OT
1838	449	5	0.4238	10.6865	21.9415	74.7081	#	HT
1839	449	5	0.4238	11.0282	23.3391	75.481102	#	HT
1840	451	4	-0.8476	10.3752	23.8584	45.177101	#	OT
1841	451	5	0.4238	10.9171	24.6108	44.802704	#	HT
1842	451	5	0.4238	10.9853	23.1782	45.583504	#	HT
1843	452	4	-0.8476	10.1595	19.488001	38.899803	#	OT
1844	452	5	0.4238	9.75395	19.381701	37.991905	#	HT
1845	452	5	0.4238	11.1494	19.599199	38.811699	#	HT
1846	453	4	-0.8476	20.1868	2.21593	1.363003	#	OT
1847	453	5	0.4238	20.2869	1.34785	0.876702	#	HT
1848	453	5	0.4238	20.556999	2.12473	2.287502	#	HT
1849	454	4	-0.8476	3.60573	21.5107	59.826103	#	OT
1850	454	5	0.4238	3.22307	21.758301	58.936104	#	HT
1851	454	5	0.4238	3.12787	20.707899	60.183106	#	HT
1852	455	4	-0.8476	8.61187	5.6682	69.366104	#	OT
1853	455	5	0.4238	8.40155	4.74047	69.675102	#	HT
1854	455	5	0.4238	9.58461	5.73295	69.144104	#	HT
1855	456	4	-0.8476	14.3859	4.33602	53.557701	#	OT
1856	456	5	0.4238	15.1267	4.78733	54.055199	#	HT
1857	456	5	0.4238	13.947	3.6624	54.152306	#	HT
1858	457	4	-0.8476	11.5284	27.870701	61.746102	#	OT
1859	457	5	0.4238	11.7411	28.1682	60.815102	#	HT
1860	457	5	0.4238	12.0803	28.392099	62.396103	#	HT
1861	458	4	-0.8476	25.3974	28.7966	84.349098	#	OT
1862	458	5	0.4238	0.660347	29.202101	84.848099	#	HT
1863	458	5	0.4238	25.4925	27.801201	84.344101	#	HT
1864	459	4	-0.8476	9.32985	4.58946	48.394005	#	OT
1865	459	5	0.4238	8.52437	3.999	48.444603	#	HT
1866	459	5	0.4238	9.64972	4.79684	49.318505	#	HT
1867	460	4	-0.8476	22.914499	8.56632	7.751202	#	OT
1868	460	5	0.4238	22.2244	8.1333	8.331001	#	HT
1869	460	5	0.4238	22.548401	8.68329	6.828003	#	HT
1870	461	4	-0.8476	16.578699	20.597401	44.578003	#	OT
1871	461	5	0.4238	17.430099	20.1563	44.861702	#	HT
1872	461	5	0.4238	15.8866	20.4748	45.289299	#	HT
1873	462	4	-0.8476	6.52705	22.6681	35.744003	#	OT
1874	462	5	0.4238	6.38557	23.6446	35.906502	#	HT
1875	462	5	0.4238	5.6647	22.179701	35.877205	#	HT
1876	463	4	-0.8476	21.666201	5.67771	29.800301	#	OT
1877	463	5	0.4238	22.616699	5.84504	29.538704	#	HT
1878	463	5	0.4238	21.6369	4.99809	30.533303	#	HT
1879	464	4	-0.8476	14.1286	2.85907	25.391998	#	OT
1880	464	5	0.4238	14.6977	3.63513	25.120102	#	HT
1881	464	5	0.4238	14.6796	2.20882	25.9151	#	HT
1882	465	4	-0.8476	3.63784	4.20365	27.051705	#	OT
1883	465	5	0.4238	3.1092	4.05428	27.887299	#	HT
1884	465	5	0.4238	3.94689	5.1541	27.018204	#	HT
1885	466	4	-0.8476	2.60894	23.572701	31.1502	#	OT
1886	466	5	0.4238	3.3463	24.0509	31.627304	#	HT
1887	466	5	0.4238	1.80452	23.525299	31.742302	#	HT
1888	467	4	-0.8476	24.5389	13.9419	54.992302	#	OT
1889	467	5	0.4238	25.108101	13.1227	54.922402	#	HT
1890	467	5	0.4238	23.5751	13.6853	54.9207	#	HT
1891	468	4	-0.8476	9.38393	13.1683	7.741902	#	OT
1892	468	5	0.4238	9.2627	12.8435	8.679802	#	HT
1893	468	5	0.4238	8.87748	12.5754	7.115803	#	HT
1894	469	4	-0.8476	13.3219	10.9187	11.694203	#	OT
1895	469	5	0.4238	13.9261	11.1136	12.466904	#	HT
1896	469	5	0.4238	13.8025	10.3436	11.032101	#	HT
1897	470	4	-0.8476	25.1036	27.819799	41.592606	#	OT
1898	470	5	0.4238	24.3682	28.3169	42.053101	#	HT
1899	470	5	0.4238	0.395171	27.763901	42.197602	#	HT
1900	471	4	-0.8476	7.83993	10.4577	28.210503	#	OT
1901	471	5	0.4238	8.57994	11.1268	28.142105	#	HT
1902	471	5	0.4238	7.34299	10.4206	27.343498	#	HT
1903	472	4	-0.8476	14.8037	14.3714	72.225105	#	OT
1904	472	5	0.4238	14.8382	15.3528	72.414101	#	HT
1905	472	5	0.4238	14.7337	14.2237	71.239105	#	HT
1906	473	4	-0.8476	8.2306	1.54585	67.6791	#	OT
1907	473	5	0.4238	8.81148	0.739439	67.5681	#	HT
1908	473	5	0.4238	8.02335	1.67667	68.648102	#	HT
1909	474	4	-0.8476	7.18055	17.131599	15.288304	#	OT
1910	474	5	0.4238	6.70731	17.953199	15.606201	#	HT
1911	474	5	0.4238	7.30681	17.181999	14.297604	#	HT
1912	475	4	-0.8476	19.910801	23.8529	9.420502	#	OT
1913	475	5	0.4238	20.474199	24.5795	9.813801	#	HT
1914	475	5	0.4238	20.3522	22.968901	9.574101	#	HT
1915	476	4	-0.8476	3.53002	5.20052	15.846703	#	OT
1916	476	5	0.4238	3.05135	6.03696	16.113602	#	HT
1917	476	5	0.4238	4.3925	5.13544	16.348602	#	HT
1918	477	4	-0.8476	23.0641	5.0871	19.418701	#	OT
1919	477	5	0.4238	22.5716	5.3904	18.603001	#	HT
1920	477	5	0.4238	23.964899	4.74195	19.155102	#	HT
1921	478	4	-0.8476	11.3061	11.4873	9.847103	#	OT
1922	478	5	0.4238	11.6719	11.4259	10.775704	#	HT
1923	478	5	0.4238	10.427	11.9635	9.865902	#	HT
1924	479	4	-0.8476	12.0769	28.7952	36.793503	#	OT
1925	479	5	0.4238	11.9236	29.271	37.659599	#	HT
1926	479	5	0.4238	12.7945	28.108999	36.912605	#	HT
1927	480	4	-0.8476	4.35086	18.5151	30.1978	#	OT
1928	480	5	0.4238	4.57321	17.7041	29.6567	#	HT
1929	480	5	0.4238	3.54493	18.329901	30.760102	#	HT
1930	481	4	-0.8476	17.9879	5.01619	67.552101	#	OT
1931	481	5	0.4238	17.8925	5.84681	67.003105	#	HT
1932	481	5	0.4238	17.9942	4.21787	66.949105	#	HT
1933	482	4	-0.8476	25.285101	15.6678	85.938103	#	OT
1934	482	5	0.4238	24.4772	16.255899	85.975105	#	HT
1935	482	5	0.4238	0.571133	16.161699	86.304108	#	HT
1936	483	4	-0.8476	1.76413	3.38999	4.756603	#	OT
1937	483	5	0.4238	1.83657	2.65805	5.434101	#	HT
1938	483	5	0.4238	0.804204	3.52114	4.508904	#	HT
1939	484	4	-0.8476	23.8999	9.58377	11.786404	#	OT
1940	484	5	0.4238	23.597601	10.4342	12.216904	#	HT
1941	484	5	0.4238	24.3475	9.00563	12.468502	#	HT
1942	485	4	-0.8476	7.9145	5.76139	27.436501	#	OT
1943	485	5	0.4238	8.06633	6.48115	28.113899	#	HT
1944	485	5	0.4238	6.93201	5.62282	27.311905	#	HT
1945	486	4	-0.8476	20.153	0.919352	10.9328	#	OT
1946	486	5	0.4238	20.7974	0.497769	10.294804	#	HT
1947	486	5	0.4238	20.6569	1.33156	11.691803	#	HT
1948	487	4	-0.8476	15.815	16.177799	86.571106	#	OT
1949	487	5	0.4238	15.0391	16.094801	85.946099	#	HT
1950	487	5	0.4238	15.8201	15.401	87.201096	#	HT
1951	488	4	-0.8476	7.68752	9.35636	55.645004	#	OT
1952	488	5	0.4238	7.12886	9.85564	54.982704	#	HT
1953	488	5	0.4238	7.21517	9.32885	56.526001	#	HT
1954	489	4	-0.8476	12.7526	20.0853	3.827103	#	OT
1955	489	5	0.4238	12.1626	19.2945	3.990502	#	HT
1956	489	5	0.4238	13.0804	20.067101	2.882504	#	HT
1957	490	4	-0.8476	5.37099	20.6429	31.897804	#	OT
1958	490	5	0.4238	5.07383	20.032301	32.631806	#	HT
1959	490	5	0.4238	5.81645	21.446501	32.292504	#	HT
1960	491	4	-0.8476	17.6677	29.267599	1.244202	#	OT
1961	491	5	0.4238	17.9079	28.3395	0.959702	#	HT
1962	491	5	0.4238	16.6766	29.387699	1.187103	#	HT
1963	492	4	-0.8476	4.58375	6.23222	7.929402	#	OT
1964	492	5	0.4238	3.75071	6.16054	7.380902	#	HT
1965	492	5	0.4238	5.16842	6.95198	7.555103	#	HT
1966	493	4	-0.8476	3.9707	20.9881	64.880104	#	OT
1967	493	5	0.4238	3.38464	20.904699	64.074105	#	HT
1968	493	5	0.4238	4.90084	20.7047	64.646103	#	HT
1969	494	4	-0.8476	6.3254	19.1826	36.4459	#	OT
1970	494	5	0.4238	5.51395	19.322399	35.878403	#	HT
1971	494	5	0.4238	6.06394	18.720501	37.293305	#	HT
1972	495	4	-0.8476	16.488199	5.57028	19.289002	#	OT
1973	495	5	0.4238	16.341801	6.39444	18.741902	#	HT
1974	495	5	0.4238	17.436501	5.26867	19.190102	#	HT
1975	496	4	-0.8476	1.67631	25.8848	6.593304	#	OT
1976	496	5	0.4238	1.79585	25.839399	7.585003	#	HT
1977	496	5	0.4238	1.21892	26.740601	6.351502	#	HT
1978	498	4	-0.8476	8.58294	21.0376	84.922104	#	OT
1979	498	5	0.4238	7.72292	21.428301	85.251099	#	HT
1980	498	5	0.4238	8.89319	20.332001	85.559105	#	HT
1981	499	4	-0.8476	7.69942	20.104799	21.821503	#	OT
1982	499	5	0.4238	6.96652	19.993099	21.150402	#	HT
1983	499	5	0.4238	7.7338	21.057899	22.121903	#	HT
1984	500	4	-0.8476	23.063101	16.203699	11.941902	#	OT
1985	500	5	0.4238	23.1008	15.2459	11.656903	#	HT
1986	500	5	0.4238	22.1311	16.548401	11.829804	#	HT
1987	501	4	-0.8476	11.8973	20.6105	6.369503	#	OT
1988	501	5	0.4238	10.9224	20.797501	6.248402	#	HT
1989	501	5	0.4238	12.0226	19.9743	7.130703	#	HT
1990	502	4	-0.8476	16.6306	10.932	80.1231	#	OT
1991	502	5	0.4238	17.5373	11.2208	79.816101	#	HT
1992	502	5	0.4238	16.364799	10.0978	79.640099	#	HT
1993	503	4	-0.8476	19.326	29.000999	3.490502	#	OT
1994	503	5	0.4238	19.035	0.280924	4.111302	#	HT
1995	503	5	0.4238	18.716299	28.975	2.698303	#	HT
1996	504	4	-0.8476	6.67407	24.183599	17.685402	#	OT
1997	504	5	0.4238	6.55297	24.3955	16.715603	#	HT
1998	504	5	0.4238	7.00833	24.995199	18.164601	#	HT
1999	505	4	-0.8476	4.92194	15.6304	33.163002	#	OT
2000	505	5	0.4238	4.09436	15.8938	32.667305	#	HT
2001	505	5	0.4238	5.01271	16.194599	33.983605	#	HT
2002	506	4	-0.8476	0.540587	9.45919	30.411705	#	OT
2003	506	5	0.4238	25.370199	9.89493	29.814102	#	HT
2004	506	5	0.4238	1.01852	8.74028	29.907006	#	HT
2005	507	4	-0.8476	23.353399	27.261801	57.700401	#	OT
2006	507	5	0.4238	22.455601	27.5289	57.350205	#	HT
2007	507	5	0.4238	23.8948	28.0811	57.889305	#	HT
2008	508	4	-0.8476	10.1193	10.5427	55.634102	#	OT
2009	508	5	0.4238	10.234	10.6856	56.617104	#	HT
2010	508	5	0.4238	9.20853	10.1703	55.455506	#	HT
2011	509	4	-0.8476	15.68	3.13627	61.217102	#	OT
2012	509	5	0.4238	15.3861	3.70597	61.9851	#	HT
2013	509	5	0.4238	15.4202	2.18598	61.389099	#	HT
2014	510	4	-0.8476	20.8225	4.79784	1.024403	#	OT
2015	510	5	0.4238	21.766001	5.11596	1.117104	#	HT
2016	510	5	0.4238	20.8172	3.80881	0.876801	#	HT
2017	511	4	-0.8476	18.1457	3.56046	86.605103	#	OT
2018	511	5	0.4238	17.3995	4.22575	86.579102	#	HT
2019	511	5	0.4238	17.819201	2.67977	86.2621	#	HT
2020	512	4	-0.8476	12.4993	17.5893	79.962105	#	OT
2021	512	5	0.4238	12.1762	18.4464	80.363098	#	HT
2022	512	5	0.4238	11.8688	17.299801	79.242104	#	HT
2023	513	4	-0.8476	14.7265	15.0133	11.797901	#	OT
2024	513	5	0.4238	15.278	15.4452	11.084202	#	HT
2025	513	5	0.4238	13.9249	14.5817	11.3843	#	HT
2026	514	4	-0.8476	11.3967	6.95029	11.965	#	OT
2027	514	5	0.4238	12.3202	6.65238	12.206902	#	HT
2028	514	5	0.4238	11.0313	6.35517	11.249203	#	HT
2029	515	4	-0.8476	18.115101	21.3248	62.228104	#	OT
2030	515	5	0.4238	18.747601	20.691799	61.782105	#	HT
2031	515	5	0.4238	17.7292	20.8916	63.043099	#	HT
2032	516	4	-0.8476	16.773701	16.140301	69.639099	#	OT
2033	516	5	0.4238	17.4636	16.782301	69.3051	#	HT
2034	516	5	0.4238	15.8613	16.501699	69.448105	#	HT
2035	517	4	-0.8476	1.18298	21.906601	1.5723	#	OT
2036	517	5	0.4238	0.838949	22.7987	1.279404	#	HT
2037	517	5	0.4238	0.47237	21.215599	1.440201	#	HT
2038	518	4	-0.8476	0.034121	10.0317	26.279801	#	OT
2039	518	5	0.4238	25.070999	10.0951	27.162399	#	HT
2040	518	5	0.4238	24.871599	9.80933	25.567101	#	HT
2041	519	4	-0.8476	16.8011	27.099899	10.016701	#	OT
2042	519	5	0.4238	16.6287	27.9939	10.430103	#	HT
2043	519	5	0.4238	17.723301	27.083599	9.630303	#	HT
2044	520	4	-0.8476	0.585573	23.8179	76.745102	#	OT
2045	520	5	0.4238	25.363701	23.3834	76.210098	#	HT
2046	520	5	0.4238	0.98832	23.1469	77.368103	#	HT
2047	521	4	-0.8476	24.2012	0.216504	71.546105	#	OT
2048	521	5	0.4238	24.0602	28.761499	71.952103	#	HT
2049	521	5	0.4238	24.1133	0.15254	70.552101	#	HT
2050	522	4	-0.8476	13.2836	7.08794	86.376099	#	OT
2051	522	5	0.4238	13.3664	6.11356	86.585098	#	HT
2052	522	5	0.4238	14.1805	7.52309	86.455109	#	HT
2053	523	4	-0.8476	5.58417	1.09969	16.2071	#	OT
2054	523	5	0.4238	4.66468	1.45408	16.036904	#	HT
2055	523	5	0.4238	5.7049	0.942987	17.187302	#	HT
2056	524	4	-0.8476	13.5357	3.1531	45.066399	#	OT
2057	524	5	0.4238	13.6101	2.27956	45.547402	#	HT
2058	524	5	0.4238	12.8784	3.73941	45.539902	#	HT
2059	525	4	-0.8476	11.2173	9.55786	12.468304	#	OT
2060	525	5	0.4238	12.0757	10.0458	12.310101	#	HT
2061	525	5	0.4238	11.3362	8.59156	12.240002	#	HT
2062	526	4	-0.8476	14.3205	6.71124	82.112099	#	OT
2063	526	5	0.4238	13.7293	6.08715	81.601105	#	HT
2064	526	5	0.4238	14.8848	6.18801	82.750099	#	HT
2065	527	4	-0.8476	20.5856	1.71846	58.436104	#	OT
2066	527	5	0.4238	20.1469	1.87298	57.550804	#	HT
2067	527	5	0.4238	20.4006	0.784332	58.741104	#	HT
2068	528	4	-0.8476	18.546801	21.7194	7.361202	#	OT
2069	528	5	0.4238	19.145901	20.9603	7.615601	#	HT
2070	528	5	0.4238	17.755199	21.7384	7.971901	#	HT
2071	529	4	-0.8476	24.9636	5.16588	32.912201	#	OT
2072	529	5	0.4238	24.0858	4.77408	33.187699	#	HT
2073	529	5	0.4238	24.8048	5.98794	32.365402	#	HT
2074	530	4	-0.8476	14.1819	10.434	85.385102	#	OT
2075	530	5	0.4238	14.5381	9.6722	85.926102	#	HT
2076	530	5	0.4238	14.4232	11.2981	85.826103	#	HT
2077	531	4	-0.8476	19.8839	12.2131	21.4473	#	OT
2078	531	5	0.4238	19.254801	11.9929	20.701801	#	HT
2079	531	5	0.4238	19.605301	11.7243	22.274002	#	HT
2080	532	4	-0.8476	14.8433	9.67886	69.6661	#	OT
2081	532	5	0.4238	14.4996	9.77883	70.600105	#	HT
2082	532	5	0.4238	15.5552	8.97689	69.647103	#	HT
2083	533	4	-0.8476	1.84316	1.15511	56.965401	#	OT
2084	533	5	0.4238	1.40631	0.710132	56.183701	#	HT
2085	533	5	0.4238	2.81221	0.909455	56.990105	#	HT
2086	534	4	-0.8476	6.116	13.2092	28.286003	#	OT
2087	534	5	0.4238	6.86507	13.7058	27.847504	#	HT
2088	534	5	0.4238	5.5069	13.8586	28.741204	#	HT
2089	535	4	-0.8476	16.081301	23.708599	25.985298	#	OT
2090	535	5	0.4238	16.6157	23.113501	25.385201	#	HT
2091	535	5	0.4238	15.1064	23.542	25.8377	#	HT
2092	536	4	-0.8476	0.084504	0.752574	60.936104	#	OT
2093	536	5	0.4238	0.639472	0.120464	61.477104	#	HT
2094	536	5	0.4238	0.296617	1.69311	61.202103	#	HT
2095	537	4	-0.8476	0.427212	9.12645	9.486801	#	OT
2096	537	5	0.4238	0.144632	9.11605	10.446003	#	HT
2097	537	5	0.4238	0.056014	8.32305	9.021301	#	HT
2098	538	4	-0.8476	6.1501	7.85271	86.293106	#	OT
2099	538	5	0.4238	5.57697	8.64807	86.491104	#	HT
2100	538	5	0.4238	7.11253	8.09855	86.409104	#	HT
2101	539	4	-0.8476	16.5021	21.742201	38.722603	#	OT
2102	539	5	0.4238	15.9041	22.5431	38.753899	#	HT
2103	539	5	0.4238	16.7728	21.4918	39.652199	#	HT
2104	540	4	-0.8476	16.080601	15.7454	3.453701	#	OT
2105	540	5	0.4238	16.325899	16.2393	4.287903	#	HT
2106	540	5	0.4238	15.0849	15.6858	3.382202	#	HT
2107	541	4	-0.8476	9.11665	21.7271	60.330101	#	OT
2108	541	5	0.4238	8.14794	21.4984	60.427101	#	HT
2109	541	5	0.4238	9.42271	21.4979	59.406105	#	HT
2110	542	4	-0.8476	17.9627	21.365101	25.005303	#	OT
2111	542	5	0.4238	18.1346	20.964701	24.105301	#	HT
2112	542	5	0.4238	18.8342	21.552	25.458901	#	HT
2113	543	4	-0.8476	13.7097	1.77282	81.814102	#	OT
2114	543	5	0.4238	12.9335	2.22856	81.378105	#	HT
2115	543	5	0.4238	13.5834	0.781922	81.767105	#	HT
2116	544	4	-0.8476	21.0413	13.5121	82.8321	#	OT
2117	544	5	0.4238	21.6043	13.5627	83.656105	#	HT
2118	544	5	0.4238	21.2796	14.2653	82.219101	#	HT
2119	545	4	-0.8476	11.7475	12.3329	58.130203	#	OT
2120	545	5	0.4238	11.5643	12.5697	59.084099	#	HT
2121	545	5	0.4238	11.428	13.0713	57.536301	#	HT
2122	546	4	-0.8476	5.51309	5.53499	62.779099	#	OT
2123	546	5	0.4238	5.85476	6.45258	62.982102	#	HT
2124	546	5	0.4238	5.99361	4.86698	63.347099	#	HT
2125	547	4	-0.8476	24.0518	2.69253	34.566002	#	OT
2126	547	5	0.4238	23.075399	2.90499	34.604698	#	HT
2127	547	5	0.4238	24.296499	2.4175	33.636299	#	HT
2128	548	4	-0.8476	18.826799	15.2123	28.962006	#	OT
2129	548	5	0.4238	19.5238	14.8594	29.586304	#	HT
2130	548	5	0.4238	17.9186	15.0237	29.335503	#	HT
2131	549	4	-0.8476	13.1884	26.761999	73.306099	#	OT
2132	549	5	0.4238	12.8824	27.3937	74.018105	#	HT
2133	549	5	0.4238	14.1189	26.4568	73.508103	#	HT
2134	550	4	-0.8476	21.831301	27.0177	80.634102	#	OT
2135	550	5	0.4238	21.2729	26.3757	80.109101	#	HT
2136	550	5	0.4238	21.2446	27.7264	81.0261	#	HT
2137	551	4	-0.8476	0.891417	15.7399	28.924004	#	OT
2138	551	5	0.4238	0.596753	14.7844	28.942703	#	HT
2139	551	5	0.4238	1.7339	15.8392	29.453499	#	HT
2140	552	4	-0.8476	9.83172	13.3442	83.351105	#	OT
2141	552	5	0.4238	8.93383	12.9079	83.409104	#	HT
2142	552	5	0.4238	9.75463	14.1972	82.834099	#	HT
2143	553	4	-0.8476	25.319	1.39975	16.147503	#	OT
2144	553	5	0.4238	24.9814	2.18506	15.628502	#	HT
2145	553	5	0.4238	25.208401	1.57437	17.1259	#	HT
2146	554	4	-0.8476	13.3999	18.6045	75.293099	#	OT
2147	554	5	0.4238	12.7382	17.884701	75.0831	#	HT
2148	554	5	0.4238	14.185	18.207199	75.768105	#	HT
2149	555	4	-0.8476	24.751699	19.190001	44.759201	#	OT
2150	555	5	0.4238	24.8825	20.0383	45.2724	#	HT
2151	555	5	0.4238	0.126626	18.7206	44.662003	#	HT
2152	556	4	-0.8476	11.6833	6.8161	15.333901	#	OT
2153	556	5	0.4238	11.5788	5.83544	15.499401	#	HT
2154	556	5	0.4238	10.7933	7.21292	15.109303	#	HT
2155	557	4	-0.8476	17.8885	23.5511	76.536102	#	OT
2156	557	5	0.4238	17.3277	22.8067	76.899101	#	HT
2157	557	5	0.4238	18.1304	23.3538	75.586106	#	HT
2158	558	4	-0.8476	25.1458	16.011299	52.1036	#	OT
2159	558	5	0.4238	25.466999	16.7125	51.467102	#	HT
2160	558	5	0.4238	0.275356	15.9473	52.875702	#	HT
2161	559	4	-0.8476	0.282014	19.17	11.266602	#	OT
2162	559	5	0.4238	0.532138	19.4408	10.337101	#	HT
2163	559	5	0.4238	1.00618	19.443399	11.899803	#	HT
2164	560	4	-0.8476	12.4101	13.0129	6.689602	#	OT
2165	560	5	0.4238	13.002	13.1875	5.902703	#	HT
2166	560	5	0.4238	12.4604	12.0451	6.936302	#	HT
2167	561	4	-0.8476	13.1057	29.007099	66.2761	#	OT
2168	561	5	0.4238	14.0491	28.699699	66.4011	#	HT
2169	561	5	0.4238	12.4828	28.354799	66.7081	#	HT
2170	562	4	-0.8476	4.12914	21.8895	82.301102	#	OT
2171	562	5	0.4238	4.29606	20.987	81.904099	#	HT
2172	562	5	0.4238	3.95975	22.5495	81.5691	#	HT
2173	563	4	-0.8476	18.8517	9.25092	21.801804	#	OT
2174	563	5	0.4238	18.4627	9.71289	21.004803	#	HT
2175	563	5	0.4238	18.4296	9.61014	22.634201	#	HT
2176	564	4	-0.8476	6.33345	15.3568	85.962105	#	OT
2177	564	5	0.4238	6.97913	14.6306	86.199097	#	HT
2178	564	5	0.4238	5.46153	14.9512	85.688103	#	HT
2179	565	4	-0.8476	23.415701	10.0525	74.567101	#	OT
2180	565	5	0.4238	23.436899	11.0518	74.597099	#	HT
2181	565	5	0.4238	24.2703	9.68976	74.939102	#	HT
2182	566	4	-0.8476	0.851537	23.921301	29.140999	#	OT
2183	566	5	0.4238	1.62896	23.6761	29.7202	#	HT
2184	566	5	0.4238	1.18266	24.203899	28.240799	#	HT
2185	567	4	-0.8476	23.3153	19.982901	86.795105	#	OT
2186	567	5	0.4238	23.646	19.0504	86.650101	#	HT
2187	567	5	0.4238	22.3444	19.959	87.033097	#	HT
2188	568	4	-0.8476	5.79833	28.123199	82.494103	#	OT
2189	568	5	0.4238	6.38874	27.317801	82.441101	#	HT
2190	568	5	0.4238	6.19389	28.785299	83.130104	#	HT
2191	569	4	-0.8476	19.770599	11.0006	79.0831	#	OT
2192	569	5	0.4238	19.6488	11.0696	80.073105	#	HT
2193	569	5	0.4238	19.9998	11.9004	78.712105	#	HT
2194	570	4	-0.8476	25.419001	22.085199	13.955601	#	OT
2195	570	5	0.4238	0.754498	21.606501	13.694401	#	HT
2196	570	5	0.4238	24.632799	21.6369	13.530201	#	HT
2197	571	4	-0.8476	11.9544	16.066099	60.045105	#	OT
2198	571	5	0.4238	11.4052	16.5693	59.378105	#	HT
2199	571	5	0.4238	11.3649	15.445	60.561104	#	HT
2200	572	4	-0.8476	11.4978	12.3711	81.517105	#	OT
2201	572	5	0.4238	10.8309	12.5673	82.236099	#	HT
2202	572	5	0.4238	11.0798	11.7806	80.827103	#	HT
2203	573	4	-0.8476	6.97124	0.572781	56.631203	#	OT
2204	573	5	0.4238	7.68205	0.064524	56.144905	#	HT
2205	573	5	0.4238	7.318	0.859027	57.524399	#	HT
2206	574	4	-0.8476	5.41022	27.078899	69.871102	#	OT
2207	574	5	0.4238	4.48473	26.887199	70.198105	#	HT
2208	574	5	0.4238	5.98192	26.2677	69.995102	#	HT
2209	575	4	-0.8476	12.2731	10.709	50.168801	#	OT
2210	575	5	0.4238	12.2069	11.4512	50.835701	#	HT
2211	575	5	0.4238	13.062	10.1344	50.386803	#	HT
2212	576	4	-0.8476	5.63925	12.442	4.531304	#	OT
2213	576	5	0.4238	5.74599	13.43	4.642304	#	HT
2214	576	5	0.4238	6.12982	12.1437	3.712502	#	HT
2215	577	4	-0.8476	10.5845	0.316707	9.608902	#	OT
2216	577	5	0.4238	10.6186	0.692707	8.682903	#	HT
2217	577	5	0.4238	10.1844	28.8486	9.5821	#	HT
2218	578	4	-0.8476	9.10959	25.906099	21.980602	#	OT
2219	578	5	0.4238	9.11153	26.901899	22.072701	#	HT
2220	578	5	0.4238	9.21191	25.660299	21.016701	#	HT
2221	579	4	-0.8476	2.18284	12.4545	12.5555	#	OT
2222	579	5	0.4238	1.76842	13.2047	13.070801	#	HT
2223	579	5	0.4238	3.02645	12.7732	12.123303	#	HT
2224	580	4	-0.8476	22.8451	14.939	20.811001	#	OT
2225	580	5	0.4238	23.216801	15.146	19.906002	#	HT
2226	580	5	0.4238	22.985001	15.7228	21.416104	#	HT
2227	581	4	-0.8476	12.6875	26.492901	1.299401	#	OT
2228	581	5	0.4238	12.3509	26.6	2.234902	#	HT
2229	581	5	0.4238	13.6418	26.7882	1.252701	#	HT
2230	582	4	-0.8476	22.249001	26.756599	48.340904	#	OT
2231	582	5	0.4238	22.652399	27.529301	47.8508	#	HT
2232	582	5	0.4238	21.559601	26.319	47.763603	#	HT
2233	583	4	-0.8476	20.990999	6.51475	71.681099	#	OT
2234	583	5	0.4238	20.286699	6.69426	72.368103	#	HT
2235	583	5	0.4238	21.135201	7.33603	71.129105	#	HT
2236	584	4	-0.8476	6.64236	7.7574	77.233101	#	OT
2237	584	5	0.4238	5.93766	7.69	76.5271	#	HT
2238	584	5	0.4238	6.41658	7.1428	77.989105	#	HT
2239	585	4	-0.8476	11.1647	29.2568	1.010102	#	OT
2240	585	5	0.4238	11.8526	28.830601	0.422501	#	HT
2241	585	5	0.4238	11.055	28.714001	1.842701	#	HT
2242	586	4	-0.8476	4.35077	14.0985	63.836106	#	OT
2243	586	5	0.4238	4.1702	15.0304	63.521103	#	HT
2244	586	5	0.4238	3.81023	13.9132	64.657105	#	HT
2245	587	4	-0.8476	7.42773	29.246201	74.3321	#	OT
2246	587	5	0.4238	7.25675	0.580167	74.931099	#	HT
2247	587	5	0.4238	6.81713	29.2925	73.5411	#	HT
2248	588	4	-0.8476	8.33759	21.987	33.638703	#	OT
2249	588	5	0.4238	8.37537	21.0112	33.4235	#	HT
2250	588	5	0.4238	7.61291	22.153099	34.307503	#	HT
2251	589	4	-0.8476	11.0847	4.64539	35.963204	#	OT
2252	589	5	0.4238	11.6874	3.88233	35.729599	#	HT
2253	589	5	0.4238	11.2327	4.90714	36.916901	#	HT
2254	590	4	-0.8476	20.6709	23.371901	69.284104	#	OT
2255	590	5	0.4238	20.736099	23.1042	70.245102	#	HT
2256	590	5	0.4238	19.860901	22.9515	68.875099	#	HT
2257	591	4	-0.8476	19.4224	8.72934	58.563103	#	OT
2258	591	5	0.4238	19.018101	8.29415	59.367104	#	HT
2259	591	5	0.4238	20.310301	8.31202	58.369103	#	HT
2260	592	4	-0.8476	3.95804	24.7868	35.575005	#	OT
2261	592	5	0.4238	3.79005	23.8391	35.846405	#	HT
2262	592	5	0.4238	4.87104	25.062799	35.875504	#	HT
2263	593	4	-0.8476	1.33655	18.1628	79.261101	#	OT
2264	593	5	0.4238	1.15818	18.323	80.232102	#	HT
2265	593	5	0.4238	0.517302	17.785101	78.829102	#	HT
2266	594	4	-0.8476	15.7938	17.261	18.093201	#	OT
2267	594	5	0.4238	16.224001	16.76	18.844101	#	HT
2268	594	5	0.4238	16.498699	17.587799	17.4636	#	HT
2269	595	4	-0.8476	3.84665	22.904301	22.854401	#	OT
2270	595	5	0.4238	3.88852	21.9443	22.5775	#	HT
2271	595	5	0.4238	3.89467	22.966	23.851303	#	HT
2272	596	4	-0.8476	13.7508	2.62323	55.7482	#	OT
2273	596	5	0.4238	13.9153	3.01607	56.653	#	HT
2274	596	5	0.4238	13.9182	1.63778	55.777306	#	HT
2275	597	4	-0.8476	8.22388	20.152599	14.227501	#	OT
2276	597	5	0.4238	7.27768	20.258101	14.533402	#	HT
2277	597	5	0.4238	8.39545	19.1943	13.999203	#	HT
2278	598	4	-0.8476	18.466101	15.3035	23.588799	#	OT
2279	598	5	0.4238	17.742901	15.3256	22.898499	#	HT
2280	598	5	0.4238	19.306499	15.6845	23.203301	#	HT
2281	599	4	-0.8476	11.5014	11.3659	21.193901	#	OT
2282	599	5	0.4238	10.6969	11.6063	20.650902	#	HT
2283	599	5	0.4238	12.3067	11.824	20.817501	#	HT
2284	600	4	-0.8476	21.8232	5.62399	36.329003	#	OT
2285	600	5	0.4238	22.2722	6.51044	36.441101	#	HT
2286	600	5	0.4238	20.8701	5.69344	36.623703	#	HT
2287	601	4	-0.8476	19.764799	17.674299	26.0028	#	OT
2288	601	5	0.4238	19.1768	18.0091	25.266503	#	HT
2289	601	5	0.4238	20.713699	17.926001	25.812103	#	HT
2290	602	4	-0.8476	12.9047	0.183819	34.476204	#	OT
2291	602	5	0.4238	12.5713	29.3092	35.362099	#	HT
2292	602	5	0.4238	12.2627	0.853041	34.102104	#	HT
2293	603	4	-0.8476	21.1085	19.9212	28.687004	#	OT
2294	603	5	0.4238	20.9937	20.635799	27.996903	#	HT
2295	603	5	0.4238	20.6612	20.202801	29.535904	#	HT
2296	604	4	-0.8476	16.327499	20.1805	60.189102	#	OT
2297	604	5	0.4238	16.700701	19.389799	59.703102	#	HT
2298	604	5	0.4238	17.065399	20.6565	60.667099	#	HT
2299	605	4	-0.8476	2.79615	1.90487	15.683804	#	OT
2300	605	5	0.4238	2.79584	1.54437	14.751003	#	HT
2301	605	5	0.4238	1.93141	1.67491	16.130303	#	HT
2302	606	4	-0.8476	14.3403	17.569	8.487702	#	OT
2303	606	5	0.4238	13.4523	17.969299	8.714001	#	HT
2304	606	5	0.4238	14.7382	18.057699	7.711304	#	HT
2305	607	4	-0.8476	9.31823	14.6373	66.642105	#	OT
2306	607	5	0.4238	9.40888	13.6951	66.965103	#	HT
2307	607	5	0.4238	9.52099	15.2671	67.392105	#	HT
2308	608	4	-0.8476	9.01169	6.83732	18.178101	#	OT
2309	608	5	0.4238	8.71542	6.28988	17.3955	#	HT
2310	608	5	0.4238	9.66715	6.31356	18.722202	#	HT
2311	609	4	-0.8476	9.13056	19.3396	44.847603	#	OT
2312	609	5	0.4238	9.24648	20.061001	45.530304	#	HT
2313	609	5	0.4238	8.3725	18.7453	45.116104	#	HT
2314	610	4	-0.8476	20.025299	14.7331	33.835304	#	OT
2315	610	5	0.4238	19.5578	15.6167	33.807999	#	HT
2316	610	5	0.4238	19.7735	14.2485	34.673004	#	HT
2317	611	4	-0.8476	18.250799	22.5424	58.5261	#	OT
2318	611	5	0.4238	17.470699	22.968901	58.984101	#	HT
2319	611	5	0.4238	18.1691	21.547501	58.586106	#	HT
2320	612	4	-0.8476	21.5618	16.5336	60.761101	#	OT
2321	612	5	0.4238	22.086399	16.4042	61.603104	#	HT
2322	612	5	0.4238	20.616199	16.244301	60.910103	#	HT
2323	613	4	-0.8476	13.1656	1.69575	23.006302	#	OT
2324	613	5	0.4238	12.4887	1.03225	22.687699	#	HT
2325	613	5	0.4238	12.8859	2.05642	23.896004	#	HT
2326	614	4	-0.8476	15.7911	27.2283	4.128803	#	OT
2327	614	5	0.4238	14.9416	27.0473	4.624302	#	HT
2328	614	5	0.4238	16.0637	28.179899	4.271	#	HT
2329	615	4	-0.8476	23.2026	17.232	22.380501	#	OT
2330	615	5	0.4238	22.8785	17.454901	23.299904	#	HT
2331	615	5	0.4238	23.5959	18.0488	21.9585	#	HT
2332	616	4	-0.8476	12.2949	16.029301	23.5187	#	OT
2333	616	5	0.4238	13.1242	16.073299	24.075798	#	HT
2334	616	5	0.4238	11.7729	15.2117	23.7621	#	HT
2335	617	4	-0.8476	25.4058	27.9053	22.599701	#	OT
2336	617	5	0.4238	25.0793	27.6987	21.677403	#	HT
2337	617	5	0.4238	0.893319	28.042999	22.579704	#	HT
2338	618	4	-0.8476	11.1331	15.6795	20.4025	#	OT
2339	618	5	0.4238	12.015	15.8869	20.825901	#	HT
2340	618	5	0.4238	10.8368	14.7657	20.68	#	HT
2341	619	4	-0.8476	14.9968	11.3944	8.1982	#	OT
2342	619	5	0.4238	15.464	12.2287	8.490704	#	HT
2343	619	5	0.4238	15.657	10.7733	7.775704	#	HT
2344	620	4	-0.8476	16.240801	14.7842	77.325104	#	OT
2345	620	5	0.4238	16.9751	14.7225	78.001099	#	HT
2346	620	5	0.4238	15.4273	15.1792	77.752098	#	HT
2347	621	4	-0.8476	5.07006	3.10461	67.204102	#	OT
2348	621	5	0.4238	5.83295	2.4597	67.250099	#	HT
2349	621	5	0.4238	5.34933	3.97975	67.600105	#	HT
2350	622	4	-0.8476	11.9272	7.34778	21.848103	#	OT
2351	622	5	0.4238	11.5166	6.60598	21.317803	#	HT
2352	622	5	0.4238	11.4107	7.47805	22.694405	#	HT
2353	623	4	-0.8476	12.658	19.915899	36.631104	#	OT
2354	623	5	0.4238	12.0979	19.365	36.012505	#	HT
2355	623	5	0.4238	12.3354	20.8624	36.619202	#	HT
2356	624	4	-0.8476	20.7421	14.4663	16.896202	#	OT
2357	624	5	0.4238	19.9876	13.891	16.5802	#	HT
2358	624	5	0.4238	21.4739	14.4602	16.214703	#	HT
2359	625	4	-0.8476	0.627962	15.6062	61.6801	#	OT
2360	625	5	0.4238	1.59581	15.8296	61.795105	#	HT
2361	625	5	0.4238	0.522563	14.6156	61.593102	#	HT
2362	626	4	-0.8476	5.80391	27.902901	29.527603	#	OT
2363	626	5	0.4238	4.87838	27.8088	29.894402	#	HT
2364	626	5	0.4238	6.0249	27.1021	28.971001	#	HT
2365	627	4	-0.8476	12.0851	11.1484	27.746498	#	OT
2366	627	5	0.4238	12.4802	10.355	28.209603	#	HT
2367	627	5	0.4238	12.7264	11.9143	27.792	#	HT
2368	628	4	-0.8476	15.9258	7.26482	2.608704	#	OT
2369	628	5	0.4238	16.378599	7.27829	3.500202	#	HT
2370	628	5	0.4238	14.9564	7.48178	2.724003	#	HT
2371	629	4	-0.8476	6.98092	11.911	14.642803	#	OT
2372	629	5	0.4238	6.49213	11.3147	14.006001	#	HT
2373	629	5	0.4238	6.68498	12.8566	14.5079	#	HT
2374	630	4	-0.8476	18.855499	13.038	73.475105	#	OT
2375	630	5	0.4238	18.591299	13.1507	72.517105	#	HT
2376	630	5	0.4238	18.257099	13.5926	74.053101	#	HT
2377	631	4	-0.8476	9.76615	23.8458	29.494599	#	OT
2378	631	5	0.4238	9.71269	23.2197	28.716706	#	HT
2379	631	5	0.4238	9.53817	24.7717	29.193405	#	HT
2380	632	4	-0.8476	13.645	20.8459	41.668701	#	OT
2381	632	5	0.4238	13.8391	21.210199	42.579605	#	HT
2382	632	5	0.4238	13.3813	21.594	41.059799	#	HT
2383	633	4	-0.8476	14.052	5.95807	0.765602	#	OT
2384	633	5	0.4238	14.994	6.08251	1.077103	#	HT
2385	633	5	0.4238	13.8698	6.57507	0	#	HT
2386	634	4	-0.8476	18.759501	6.65018	56.135002	#	OT
2387	634	5	0.4238	18.612499	7.37859	56.804199	#	HT
2388	634	5	0.4238	19.698099	6.31345	56.209603	#	HT
2389	635	4	-0.8476	25.035601	25.34	16.3862	#	OT
2390	635	5	0.4238	24.302799	25.5462	17.034603	#	HT
2391	635	5	0.4238	25.2528	24.364799	16.427803	#	HT
2392	636	4	-0.8476	13.9357	23.150801	69.654099	#	OT
2393	636	5	0.4238	13.8688	22.631701	68.802101	#	HT
2394	636	5	0.4238	14.8638	23.075199	70.019104	#	HT
2395	637	4	-0.8476	6.2967	7.54497	19.280503	#	OT
2396	637	5	0.4238	5.72563	6.76837	19.014504	#	HT
2397	637	5	0.4238	7.25577	7.33339	19.092301	#	HT
2398	638	4	-0.8476	13.7913	3.45079	69.099098	#	OT
2399	638	5	0.4238	13.4326	2.92772	68.326103	#	HT
2400	638	5	0.4238	13.162	3.3762	69.872101	#	HT
2401	639	4	-0.8476	18.7668	1.96404	5.273503	#	OT
2402	639	5	0.4238	19.6894	2.333	5.160301	#	HT
2403	639	5	0.4238	18.448099	2.14326	6.204201	#	HT
2404	640	4	-0.8476	9.74305	21.042801	57.861199	#	OT
2405	640	5	0.4238	9.91932	20.0963	57.591004	#	HT
2406	640	5	0.4238	9.17069	21.485399	57.170899	#	HT
2407	641	4	-0.8476	1.84919	17.110901	57.094399	#	OT
2408	641	5	0.4238	2.78486	17.064899	57.444306	#	HT
2409	641	5	0.4238	1.20686	17.120399	57.860802	#	HT
2410	642	4	-0.8476	24.3643	22.211	74.937103	#	OT
2411	642	5	0.4238	23.787201	22.5438	75.683106	#	HT
2412	642	5	0.4238	24.768801	21.3335	75.195099	#	HT
2413	643	4	-0.8476	11.1023	6.92348	24.5234	#	OT
2414	643	5	0.4238	11.7229	6.25406	24.931702	#	HT
2415	643	5	0.4238	10.7851	7.55749	25.228699	#	HT
2416	644	4	-0.8476	6.82351	14.9227	31.423302	#	OT
2417	644	5	0.4238	6.33628	15.1846	32.256401	#	HT
2418	644	5	0.4238	6.17062	14.8246	30.672302	#	HT
2419	645	4	-0.8476	9.47957	15.6858	82.002098	#	OT
2420	645	5	0.4238	9.42844	15.5913	81.008103	#	HT
2421	645	5	0.4238	8.56378	15.8495	82.369103	#	HT
2422	646	4	-0.8476	24.064301	22.857599	5.018704	#	OT
2423	646	5	0.4238	24.2852	23.831301	4.962902	#	HT
2424	646	5	0.4238	23.5357	22.5891	4.213402	#	HT
2425	647	4	-0.8476	19.706301	5.12487	24.819	#	OT
2426	647	5	0.4238	20.087799	4.33294	24.342301	#	HT
2427	647	5	0.4238	18.882601	4.85028	25.315102	#	HT
2428	648	4	-0.8476	8.60329	22.7481	64.0271	#	OT
2429	648	5	0.4238	8.13552	23.148899	63.239105	#	HT
2430	648	5	0.4238	9.59166	22.852501	63.9161	#	HT
2431	649	4	-0.8476	9.09087	28.4426	56.161301	#	OT
2432	649	5	0.4238	9.82536	28.3337	56.831101	#	HT
2433	649	5	0.4238	8.87551	27.554399	55.755402	#	HT
2434	650	4	-0.8476	5.35985	5.05487	33.365502	#	OT
2435	650	5	0.4238	5.0058	5.28766	32.459801	#	HT
2436	650	5	0.4238	5.9635	5.7852	33.685303	#	HT
2437	651	4	-0.8476	16.3335	21.5525	8.767304	#	OT
2438	651	5	0.4238	15.6645	21.417101	8.036602	#	HT
2439	651	5	0.4238	16.213699	20.845501	9.464203	#	HT
2440	652	4	-0.8476	13.5745	19.899099	1.278202	#	OT
2441	652	5	0.4238	13.5104	18.934799	1.021103	#	HT
2442	652	5	0.4238	14.463	20.2609	0.996201	#	HT
2443	653	4	-0.8476	8.86413	8.04901	86.538101	#	OT
2444	653	5	0.4238	8.73249	7.51099	85.705101	#	HT
2445	653	5	0.4238	9.84024	8.21761	86.675095	#	HT
2446	654	4	-0.8476	16.8479	22.5436	30.613701	#	OT
2447	654	5	0.4238	17.4526	21.893299	31.073601	#	HT
2448	654	5	0.4238	17.1077	22.616699	29.650803	#	HT
2449	655	4	-0.8476	25.1784	17.91	38.689301	#	OT
2450	655	5	0.4238	25.090799	18.1113	39.664902	#	HT
2451	655	5	0.4238	24.276699	17.703501	38.309303	#	HT
2452	656	4	-0.8476	0.710263	18.916599	15.891503	#	OT
2453	656	5	0.4238	0.386037	18.797199	16.829903	#	HT
2454	656	5	0.4238	25.4338	18.899	15.2649	#	HT
2455	657	4	-0.8476	0.964685	11.4933	53.771805	#	OT
2456	657	5	0.4238	0.594844	10.7111	54.273102	#	HT
2457	657	5	0.4238	1.63439	11.9685	54.342499	#	HT
2458	658	4	-0.8476	24.7481	15.3679	80.760102	#	OT
2459	658	5	0.4238	25.014601	16.0781	80.109101	#	HT
2460	658	5	0.4238	25.4237	14.6308	80.745102	#	HT
2461	659	4	-0.8476	3.72873	27.4373	3.047203	#	OT
2462	659	5	0.4238	3.81443	26.4909	3.358601	#	HT
2463	659	5	0.4238	4.57175	27.7141	2.586003	#	HT
2464	660	4	-0.8476	16.590401	21.405001	34.437302	#	OT
2465	660	5	0.4238	17.473101	21.683901	34.058998	#	HT
2466	660	5	0.4238	16.351101	20.4979	34.091202	#	HT
2467	661	4	-0.8476	7.12022	22.1625	5.124203	#	OT
2468	661	5	0.4238	7.36501	21.515499	4.402001	#	HT
2469	661	5	0.4238	6.8743	23.041201	4.715203	#	HT
2470	662	4	-0.8476	11.7856	19.0772	42.967606	#	OT
2471	662	5	0.4238	12.3822	19.506399	42.289505	#	HT
2472	662	5	0.4238	12.3249	18.466	43.546799	#	HT
2473	663	4	-0.8476	19.934299	11.8751	65.1381	#	OT
2474	663	5	0.4238	20.415501	11.3948	64.405106	#	HT
2475	663	5	0.4238	19.4881	11.2092	65.736099	#	HT
2476	664	4	-0.8476	9.94856	26.5415	30.784599	#	OT
2477	664	5	0.4238	9.9425	26.758101	29.808403	#	HT
2478	664	5	0.4238	9.80251	27.378201	31.3125	#	HT
2479	665	4	-0.8476	3.61397	0.179979	45.523499	#	OT
2480	665	5	0.4238	3.13122	29.0205	44.8927	#	HT
2481	665	5	0.4238	3.60969	29.228201	46.440102	#	HT
2482	666	4	-0.8476	2.40931	20.925301	16.578201	#	OT
2483	666	5	0.4238	2.27751	20.9219	17.5695	#	HT
2484	666	5	0.4238	2.07874	21.7904	16.201	#	HT
2485	667	4	-0.8476	13.8393	15.5354	78.653099	#	OT
2486	667	5	0.4238	13.5409	16.362801	79.129105	#	HT
2487	667	5	0.4238	13.0448	15.0708	78.2621	#	HT
2488	668	4	-0.8476	13.3287	11.8157	63.322106	#	OT
2489	668	5	0.4238	13.7738	11.8172	62.427101	#	HT
2490	668	5	0.4238	13.2513	10.8757	63.654099	#	HT
2491	669	4	-0.8476	12.9083	16.6996	62.462105	#	OT
2492	669	5	0.4238	12.202	16.4965	63.140099	#	HT
2493	669	5	0.4238	12.5147	16.6458	61.545105	#	HT
2494	670	4	-0.8476	13.8281	21.806601	78.966103	#	OT
2495	670	5	0.4238	13.1913	22.077101	79.688103	#	HT
2496	670	5	0.4238	13.317	21.4191	78.198105	#	HT
2497	671	4	-0.8476	24.691601	4.51223	41.432099	#	OT
2498	671	5	0.4238	24.5291	5.4323	41.788605	#	HT
2499	671	5	0.4238	24.9049	3.89438	42.188904	#	HT
2500	672	4	-0.8476	18.9981	9.72103	11.530903	#	OT
2501	672	5	0.4238	19.7717	10.3456	11.423802	#	HT
2502	672	5	0.4238	19.32	8.85376	11.910702	#	HT
2503	673	4	-0.8476	15.7598	9.58484	62.653099	#	OT
2504	673	5	0.4238	16.7556	9.4999	62.688103	#	HT
2505	673	5	0.4238	15.4997	10.1264	61.853104	#	HT
2506	674	4	-0.8476	7.22357	0.523827	28.600403	#	OT
2507	674	5	0.4238	7.82967	0.155839	27.895203	#	HT
2508	674	5	0.4238	6.72942	29.221701	29.039803	#	HT
2509	675	4	-0.8476	1.18304	17.2822	26.790299	#	OT
2510	675	5	0.4238	1.01765	16.7013	27.587403	#	HT
2511	675	5	0.4238	0.971534	18.2321	27.0205	#	HT
2512	676	4	-0.8476	16.6677	23.266899	60.984101	#	OT
2513	676	5	0.4238	16.014099	23.5243	61.696099	#	HT
2514	676	5	0.4238	17.389799	22.7019	61.383103	#	HT
2515	677	4	-0.8476	25.1586	7.32094	3.820603	#	OT
2516	677	5	0.4238	24.426901	7.89086	4.1945	#	HT
2517	677	5	0.4238	24.8619	6.36612	3.803902	#	HT
2518	678	4	-0.8476	23.204399	28.372601	17.765103	#	OT
2519	678	5	0.4238	23.094101	27.4156	18.033402	#	HT
2520	678	5	0.4238	23.681299	28.419901	16.887402	#	HT
2521	679	4	-0.8476	0.625883	18.890499	2.814503	#	OT
2522	679	5	0.4238	0.21922	19.4314	2.078201	#	HT
2523	679	5	0.4238	1.25183	19.4641	3.342903	#	HT
2524	680	4	-0.8476	7.27488	18.1101	23.874298	#	OT
2525	680	5	0.4238	7.17082	17.2822	24.425499	#	HT
2526	680	5	0.4238	6.54394	18.754299	24.099304	#	HT
2527	681	4	-0.8476	11.9042	21.969601	33.183502	#	OT
2528	681	5	0.4238	10.9708	21.610701	33.180802	#	HT
2529	681	5	0.4238	12.4794	21.3981	33.7687	#	HT
2530	682	4	-0.8476	10.4823	24.177	60.6801	#	OT
2531	682	5	0.4238	10.0013	23.301901	60.732102	#	HT
2532	682	5	0.4238	10.4822	24.612	61.580101	#	HT
2533	683	4	-0.8476	20.003	14.9436	20.717602	#	OT
2534	683	5	0.4238	20.2113	15.6169	20.008103	#	HT
2535	683	5	0.4238	19.016199	14.9235	20.878502	#	HT
2536	684	4	-0.8476	14.9327	28.983601	78.343102	#	OT
2537	684	5	0.4238	14.9531	28.0877	78.787102	#	HT
2538	684	5	0.4238	14.7239	28.869801	77.371102	#	HT
2539	685	4	-0.8476	4.71876	17.5585	85.822106	#	OT
2540	685	5	0.4238	4.42999	17.7265	84.879105	#	HT
2541	685	5	0.4238	5.49418	16.927099	85.825104	#	HT
2542	686	4	-0.8476	12.4005	25.798401	44.995606	#	OT
2543	686	5	0.4238	12.2487	26.731899	44.670502	#	HT
2544	686	5	0.4238	13.172	25.395399	44.503304	#	HT
2545	687	4	-0.8476	14.5056	10.9706	18.041001	#	OT
2546	687	5	0.4238	15.4431	10.7434	17.777401	#	HT
2547	687	5	0.4238	14.4698	11.9168	18.362503	#	HT
2548	688	4	-0.8476	18.2183	15.0854	79.126099	#	OT
2549	688	5	0.4238	18.5103	15.9886	79.441101	#	HT
2550	688	5	0.4238	19.022699	14.5293	78.917099	#	HT
2551	689	4	-0.8476	11.4981	5.42446	68.661102	#	OT
2552	689	5	0.4238	12.1049	5.74475	67.934105	#	HT
2553	689	5	0.4238	11.9348	5.57199	69.548104	#	HT
2554	690	4	-0.8476	15.8426	19.439699	69.282105	#	OT
2555	690	5	0.4238	15.5019	19.262699	70.205101	#	HT
2556	690	5	0.4238	15.0703	19.591801	68.6651	#	HT
2557	691	4	-0.8476	17.431601	10.6298	17.196404	#	OT
2558	691	5	0.4238	17.9277	9.77586	17.039601	#	HT
2559	691	5	0.4238	17.919399	11.3842	16.757302	#	HT
2560	692	4	-0.8476	16.0501	12.5834	29.573502	#	OT
2561	692	5	0.4238	15.8861	12.3698	30.536499	#	HT
2562	692	5	0.4238	15.8164	13.5401	29.399803	#	HT
2563	693	4	-0.8476	12.1222	4.11055	83.698105	#	OT
2564	693	5	0.4238	11.5703	4.79231	84.1791	#	HT
2565	693	5	0.4238	12.1573	4.33595	82.725105	#	HT
2566	694	4	-0.8476	0.067617	26.030399	83.855103	#	OT
2567	694	5	0.4238	0.669064	25.4727	83.283104	#	HT
2568	694	5	0.4238	24.6208	25.893499	83.573105	#	HT
2569	696	4	-0.8476	14.0816	21.055201	82.866104	#	OT
2570	696	5	0.4238	13.9475	20.108999	83.160103	#	HT
2571	696	5	0.4238	14.7967	21.479	83.421105	#	HT
2572	697	4	-0.8476	7.61638	22.3403	66.671105	#	OT
2573	697	5	0.4238	7.84472	22.4426	65.703102	#	HT
2574	697	5	0.4238	8.30006	22.813499	67.226105	#	HT
2575	698	4	-0.8476	10.302	17.7187	1.301201	#	OT
2576	698	5	0.4238	10.7815	17.775299	2.176903	#	HT
2577	698	5	0.4238	10.9637	17.559401	0.568501	#	HT
2578	699	4	-0.8476	25.020399	15.3022	70.265099	#	OT
2579	699	5	0.4238	24.2183	14.7381	70.0691	#	HT
2580	699	5	0.4238	25.482	15.5342	69.408104	#	HT
2581	700	4	-0.8476	12.1067	11.5705	41.599304	#	OT
2582	700	5	0.4238	12.0208	11.2962	40.641503	#	HT
2583	700	5	0.4238	11.9282	12.551	41.682503	#	HT
2584	701	4	-0.8476	13.1137	17.930401	18.503903	#	OT
2585	701	5	0.4238	14.0378	17.678101	18.216801	#	HT
2586	701	5	0.4238	12.9839	17.6833	19.464203	#	HT
2587	702	4	-0.8476	2.52497	9.6348	56.996002	#	OT
2588	702	5	0.4238	2.76381	8.92708	56.331101	#	HT
2589	702	5	0.4238	3.10476	9.54105	57.805405	#	HT
2590	703	4	-0.8476	15.0067	20.371799	46.991501	#	OT
2591	703	5	0.4238	14.7513	19.4907	47.389603	#	HT
2592	703	5	0.4238	15.2204	21.018801	47.723404	#	HT
2593	704	4	-0.8476	22.898399	23.9366	64.392105	#	OT
2594	704	5	0.4238	23.4293	24.3866	63.674103	#	HT
2595	704	5	0.4238	23.3036	24.139999	65.284104	#	HT
2596	705	4	-0.8476	7.35409	25.9522	23.9235	#	OT
2597	705	5	0.4238	7.23319	26.9067	24.1959	#	HT
2598	705	5	0.4238	6.47096	25.483801	23.949303	#	HT
2599	706	4	-0.8476	3.65278	20.321501	21.736202	#	OT
2600	706	5	0.4238	3.17721	19.441799	21.733601	#	HT
2601	706	5	0.4238	4.3477	20.326799	21.017201	#	HT
2602	707	4	-0.8476	14.1221	12.6829	1.265602	#	OT
2603	707	5	0.4238	14.0705	11.9898	1.9846	#	HT
2604	707	5	0.4238	13.4043	13.3645	1.407601	#	HT
2605	708	4	-0.8476	10.5401	14.3449	61.7901	#	OT
2606	708	5	0.4238	9.59053	14.4243	61.487099	#	HT
2607	708	5	0.4238	10.8798	13.427	61.586106	#	HT
2608	709	4	-0.8476	13.3227	0.783673	10.321503	#	OT
2609	709	5	0.4238	13.5074	0.532457	9.371304	#	HT
2610	709	5	0.4238	14.127	0.584716	10.881302	#	HT
2611	711	4	-0.8476	11.7488	6.8929	57.9123	#	OT
2612	711	5	0.4238	12.4622	6.21115	58.074303	#	HT
2613	711	5	0.4238	10.8505	6.47078	58.034302	#	HT
2614	712	4	-0.8476	9.59306	21.9436	6.2551	#	OT
2615	712	5	0.4238	9.56677	21.9807	7.254101	#	HT
2616	712	5	0.4238	8.66569	22.039499	5.893501	#	HT
2617	713	4	-0.8476	18.7908	16.299801	17.029701	#	OT
2618	713	5	0.4238	18.367599	15.401	16.9151	#	HT
2619	713	5	0.4238	19.6852	16.194	17.464401	#	HT
2620	714	4	-0.8476	24.3202	22.424601	85.896103	#	OT
2621	714	5	0.4238	23.7791	22.557301	85.065102	#	HT
2622	714	5	0.4238	23.9732	21.6315	86.397095	#	HT
2623	715	4	-0.8476	17.7617	28.382999	71.657105	#	OT
2624	715	5	0.4238	18.0723	29.103201	71.037102	#	HT
2625	715	5	0.4238	16.7703	28.2794	71.578102	#	HT
2626	716	4	-0.8476	17.7801	10.0888	86.442108	#	OT
2627	716	5	0.4238	18.736401	9.8631	86.256104	#	HT
2628	716	5	0.4238	17.6668	11.0823	86.445099	#	HT
2629	717	4	-0.8476	16.3186	10.3148	48.016403	#	OT
2630	717	5	0.4238	16.9832	11.0495	48.152405	#	HT
2631	717	5	0.4238	16.3312	10.027	47.058701	#	HT
2632	718	4	-0.8476	14.4684	9.99784	39.062599	#	OT
2633	718	5	0.4238	13.4698	9.94809	39.042801	#	HT
2634	718	5	0.4238	14.7737	10.7833	38.524201	#	HT
2635	719	4	-0.8476	8.20204	6.7965	55.456001	#	OT
2636	719	5	0.4238	7.65525	6.43232	56.2099	#	HT
2637	719	5	0.4238	8.04672	7.7812	55.3769	#	HT
2638	720	4	-0.8476	16.416401	6.58992	7.418503	#	OT
2639	720	5	0.4238	15.8286	7.20338	6.891201	#	HT
2640	720	5	0.4238	16.9533	7.1231	8.072403	#	HT
2641	721	4	-0.8476	22.0012	15.0503	72.6381	#	OT
2642	721	5	0.4238	22.3412	14.5236	71.859101	#	HT
2643	721	5	0.4238	22.755899	15.2425	73.266098	#	HT
2644	722	4	-0.8476	6.45268	21.887699	59.919106	#	OT
2645	722	5	0.4238	5.51397	21.865499	59.575104	#	HT
2646	722	5	0.4238	6.61873	22.760099	60.379105	#	HT
2647	723	4	-0.8476	0.400015	14.3138	1.934902	#	OT
2648	723	5	0.4238	25.0744	14.3641	1.376904	#	HT
2649	723	5	0.4238	0.154878	14.0759	2.874703	#	HT
2650	724	4	-0.8476	14.351	10.2977	43.512001	#	OT
2651	724	5	0.4238	14.8125	10.2561	42.6259	#	HT
2652	724	5	0.4238	14.8267	9.70685	44.163605	#	HT
2653	725	4	-0.8476	11.9205	22.473499	20.990803	#	OT
2654	725	5	0.4238	11.5789	22.703699	20.079601	#	HT
2655	725	5	0.4238	12.0611	21.4855	21.054203	#	HT
2656	726	4	-0.8476	18.659401	27.226	34.201904	#	OT
2657	726	5	0.4238	18.4396	26.4464	33.615502	#	HT
2658	726	5	0.4238	18.935101	28.0023	33.635002	#	HT
2659	727	4	-0.8476	2.99755	17.7591	9.516201	#	OT
2660	727	5	0.4238	2.36913	18.416901	9.101002	#	HT
2661	727	5	0.4238	3.65685	17.4498	8.830902	#	HT
2662	728	4	-0.8476	11.0608	2.67631	24.5467	#	OT
2663	728	5	0.4238	10.7936	3.08361	23.673401	#	HT
2664	728	5	0.4238	11.561	3.35072	25.089806	#	HT
2665	729	4	-0.8476	13.2822	6.7603	67.101105	#	OT
2666	729	5	0.4238	13.1736	7.75316	67.052101	#	HT
2667	729	5	0.4238	13.8195	6.52367	67.911102	#	HT
2668	730	4	-0.8476	22.6777	25.9279	37.186501	#	OT
2669	730	5	0.4238	23.309999	26.369301	36.549904	#	HT
2670	730	5	0.4238	22.691601	24.9391	37.038399	#	HT
2671	731	4	-0.8476	19.539499	20.871901	79.7071	#	OT
2672	731	5	0.4238	18.5478	20.9916	79.753105	#	HT
2673	731	5	0.4238	19.9126	20.8218	80.634102	#	HT
2674	732	4	-0.8476	1.80458	20.452	19.195103	#	OT
2675	732	5	0.4238	2.1622	20.7784	20.070103	#	HT
2676	732	5	0.4238	1.01413	19.861401	19.357502	#	HT
2677	733	4	-0.8476	9.88632	8.6368	66.844101	#	OT
2678	733	5	0.4238	9.36559	8.55101	67.6941	#	HT
2679	733	5	0.4238	10.3524	9.52136	66.827103	#	HT
2680	734	4	-0.8476	3.44133	15.7381	7.100304	#	OT
2681	734	5	0.4238	2.46686	15.5566	6.968201	#	HT
2682	734	5	0.4238	3.77513	15.2129	7.883103	#	HT
2683	735	4	-0.8476	1.49111	20.4506	77.615105	#	OT
2684	735	5	0.4238	2.43328	20.5996	77.9151	#	HT
2685	735	5	0.4238	0.979526	19.9886	78.340103	#	HT
2686	736	4	-0.8476	21.7199	26.062799	31.909805	#	OT
2687	736	5	0.4238	21.6071	27.0543	31.844704	#	HT
2688	736	5	0.4238	21.565901	25.771099	32.853806	#	HT
2689	737	4	-0.8476	21.5707	26.1649	29.090401	#	OT
2690	737	5	0.4238	22.3181	26.829	29.075501	#	HT
2691	737	5	0.4238	20.7223	26.6115	28.806305	#	HT
2692	738	4	-0.8476	1.55476	17.4366	41.152703	#	OT
2693	738	5	0.4238	0.7749	17.946699	41.515602	#	HT
2694	738	5	0.4238	1.94931	16.871201	41.877098	#	HT
2695	739	4	-0.8476	24.739799	16.820299	78.345101	#	OT
2696	739	5	0.4238	24.185301	17.2922	77.660103	#	HT
2697	739	5	0.4238	24.5072	15.8478	78.350105	#	HT
2698	740	4	-0.8476	15.7686	23.8501	12.505001	#	OT
2699	740	5	0.4238	15.2865	23.8846	13.380402	#	HT
2700	740	5	0.4238	16.507099	23.1779	12.557301	#	HT
2701	741	4	-0.8476	23.8631	17.426201	46.610405	#	OT
2702	741	5	0.4238	24.550699	17.585501	47.318703	#	HT
2703	741	5	0.4238	24.083599	17.973	45.802704	#	HT
2704	742	4	-0.8476	20.529301	22.405399	77.914101	#	OT
2705	742	5	0.4238	20.2747	21.824499	78.687103	#	HT
2706	742	5	0.4238	19.708401	22.8286	77.530106	#	HT
2707	743	4	-0.8476	16.4534	26.2644	59.289101	#	OT
2708	743	5	0.4238	17.2185	25.6255	59.370102	#	HT
2709	743	5	0.4238	16.5777	26.832001	58.475105	#	HT
2710	744	4	-0.8476	8.70714	17.7134	7.506401	#	OT
2711	744	5	0.4238	9.55638	18.1383	7.820004	#	HT
2712	744	5	0.4238	8.48748	18.045099	6.588902	#	HT
2713	745	4	-0.8476	18.7621	18.583799	36.874703	#	OT
2714	745	5	0.4238	17.969801	17.974001	36.858399	#	HT
2715	745	5	0.4238	18.753901	19.118601	37.719704	#	HT
2716	746	4	-0.8476	17.746201	15.5506	26.320702	#	OT
2717	746	5	0.4238	16.749901	15.4711	26.288201	#	HT
2718	746	5	0.4238	18.126101	15.3518	25.417305	#	HT
2719	747	4	-0.8476	3.97004	2.65083	82.239105	#	OT
2720	747	5	0.4238	3.43405	2.1831	81.536102	#	HT
2721	747	5	0.4238	3.53522	3.5226	82.464104	#	HT
2722	748	4	-0.8476	7.00482	12.2126	66.926102	#	OT
2723	748	5	0.4238	6.14536	11.8484	67.284104	#	HT
2724	748	5	0.4238	6.91582	12.369	65.942101	#	HT
2725	749	4	-0.8476	13.6505	3.88678	29.634201	#	OT
2726	749	5	0.4238	13.6362	3.12639	30.283501	#	HT
2727	749	5	0.4238	13.2993	4.71101	30.078301	#	HT
2728	750	4	-0.8476	2.71456	5.72723	66.830101	#	OT
2729	750	5	0.4238	2.50993	6.00912	67.767105	#	HT
2730	750	5	0.4238	3.70178	5.77109	66.676102	#	HT
2731	751	4	-0.8476	11.0747	9.77762	73.217102	#	OT
2732	751	5	0.4238	10.6739	8.96673	73.644104	#	HT
2733	751	5	0.4238	11.1305	9.64111	72.228104	#	HT
2734	752	4	-0.8476	13.997	1.46296	27.911598	#	OT
2735	752	5	0.4238	13.842	2.38136	28.275604	#	HT
2736	752	5	0.4238	13.1201	1.04822	27.668801	#	HT
2737	753	4	-0.8476	0.652683	27.9025	16.2537	#	OT
2738	753	5	0.4238	1.40182	27.8958	16.916104	#	HT
2739	753	5	0.4238	0.051121	28.6796	16.438702	#	HT
2740	754	4	-0.8476	3.40271	25.7946	76.424103	#	OT
2741	754	5	0.4238	3.62932	25.987499	77.379105	#	HT
2742	754	5	0.4238	3.28224	26.655399	75.9301	#	HT
2743	755	4	-0.8476	3.17821	0.755321	1.155102	#	OT
2744	755	5	0.4238	4.0928	1.14849	1.0606	#	HT
2745	755	5	0.4238	3.21818	29.4079	1.759903	#	HT
2746	756	4	-0.8476	20.936199	16.027201	69.868103	#	OT
2747	756	5	0.4238	21.120001	15.1078	70.216103	#	HT
2748	756	5	0.4238	21.2864	16.7045	70.515099	#	HT
2749	757	4	-0.8476	3.82481	23.9842	10.453102	#	OT
2750	757	5	0.4238	3.31496	23.2565	9.994301	#	HT
2751	757	5	0.4238	4.39913	23.588301	11.169602	#	HT
2752	758	4	-0.8476	12.8832	5.97671	48.462502	#	OT
2753	758	5	0.4238	13.0499	5.27828	49.158402	#	HT
2754	758	5	0.4238	12.2231	5.63148	47.795304	#	HT
2755	759	4	-0.8476	16.701401	16.587601	9.237702	#	OT
2756	759	5	0.4238	15.7915	16.989599	9.134903	#	HT
2757	759	5	0.4238	17.300699	17.2353	9.708103	#	HT
2758	760	4	-0.8476	14.8303	14.3274	18.329201	#	OT
2759	760	5	0.4238	15.3994	14.3098	19.151303	#	HT
2760	760	5	0.4238	14.8495	15.2442	17.930203	#	HT
2761	761	4	-0.8476	14.5406	22.235901	66.995102	#	OT
2762	761	5	0.4238	14.7007	23.147499	66.616104	#	HT
2763	761	5	0.4238	15.4059	21.7367	67.039101	#	HT
2764	762	4	-0.8476	22.9212	18.8626	10.794502	#	OT
2765	762	5	0.4238	22.9799	19.8083	10.475002	#	HT
2766	762	5	0.4238	22.347099	18.3344	10.168801	#	HT
2767	763	4	-0.8476	10.3922	28.834801	19.106701	#	OT
2768	763	5	0.4238	10.6808	29.2477	19.9706	#	HT
2769	763	5	0.4238	11.1153	28.233601	18.766602	#	HT
2770	764	4	-0.8476	3.86874	10.792	62.382103	#	OT
2771	764	5	0.4238	4.02995	11.3397	63.203102	#	HT
2772	764	5	0.4238	3.33478	9.98117	62.622101	#	HT
2773	765	4	-0.8476	4.26656	15.9639	24.210503	#	OT
2774	765	5	0.4238	5.24262	16.0035	24.424401	#	HT
2775	765	5	0.4238	4.14351	15.6322	23.2752	#	HT
2776	766	4	-0.8476	16.3148	12.6939	21.919403	#	OT
2777	766	5	0.4238	16.2729	13.6809	21.764103	#	HT
2778	766	5	0.4238	17.106701	12.4798	22.491104	#	HT
2779	767	4	-0.8476	9.02088	25.069901	73.918099	#	OT
2780	767	5	0.4238	9.70929	25.0588	73.192101	#	HT
2781	767	5	0.4238	9.4744	25.1311	74.807099	#	HT
2782	768	4	-0.8476	9.71639	5.01195	41.268006	#	OT
2783	768	5	0.4238	9.03249	4.56812	41.847	#	HT
2784	768	5	0.4238	10.4668	5.34874	41.8368	#	HT
2785	769	4	-0.8476	3.73758	22.363501	36.497002	#	OT
2786	769	5	0.4238	4.03237	21.702499	37.187103	#	HT
2787	769	5	0.4238	3.03607	21.9494	35.917	#	HT
2788	770	4	-0.8476	25.350201	9.32368	18.7024	#	OT
2789	770	5	0.4238	0.113525	10.2746	18.860604	#	HT
2790	770	5	0.4238	24.678699	9.28414	17.962403	#	HT
2791	771	4	-0.8476	23.117001	23.9758	68.946099	#	OT
2792	771	5	0.4238	22.1241	23.8568	68.945099	#	HT
2793	771	5	0.4238	23.415001	24.302799	68.050102	#	HT
2794	772	4	-0.8476	5.63936	1.66601	1.6259	#	OT
2795	772	5	0.4238	6.3872	2.23522	1.967503	#	HT
2796	772	5	0.4238	5.89542	0.701898	1.696102	#	HT
2797	773	4	-0.8476	1.02652	25.563101	55.672501	#	OT
2798	773	5	0.4238	0.124184	25.132999	55.6437	#	HT
2799	773	5	0.4238	1.13457	26.0534	56.5373	#	HT
2800	774	4	-0.8476	21.1576	11.6442	30.271103	#	OT
2801	774	5	0.4238	21.986799	11.4045	29.766205	#	HT
2802	774	5	0.4238	21.077101	11.0579	31.077202	#	HT
2803	776	4	-0.8476	5.35896	13.8797	57.283402	#	OT
2804	776	5	0.4238	6.32978	13.7093	57.452103	#	HT
2805	776	5	0.4238	5.13723	13.6372	56.338906	#	HT
2806	777	4	-0.8476	14.7281	19.746099	11.803402	#	OT
2807	777	5	0.4238	15.6624	19.6022	11.477402	#	HT
2808	777	5	0.4238	14.3865	18.903099	12.218903	#	HT
2809	778	4	-0.8476	2.11556	1.46463	50.0233	#	OT
2810	778	5	0.4238	1.9134	1.16247	49.091805	#	HT
2811	778	5	0.4238	2.57986	0.730333	50.518501	#	HT
2812	779	4	-0.8476	2.82858	11.0449	59.853104	#	OT
2813	779	5	0.4238	2.48788	11.9584	59.631104	#	HT
2814	779	5	0.4238	3.36798	11.0862	60.6941	#	HT
2815	780	4	-0.8476	1.16368	26.629499	2.280701	#	OT
2816	780	5	0.4238	1.96224	27.069401	2.691601	#	HT
2817	780	5	0.4238	0.507525	27.3286	1.996403	#	HT
2818	781	4	-0.8476	20.066299	17.213301	80.771103	#	OT
2819	781	5	0.4238	19.5352	17.898701	80.272103	#	HT
2820	781	5	0.4238	20.695	17.671101	81.399101	#	HT
2821	782	4	-0.8476	1.65547	26.1761	48.227799	#	OT
2822	782	5	0.4238	1.08553	26.654499	47.5597	#	HT
2823	782	5	0.4238	1.64691	25.195499	48.0318	#	HT
2824	783	4	-0.8476	5.2619	27.0235	16.045201	#	OT
2825	783	5	0.4238	4.71029	26.5065	16.699703	#	HT
2826	783	5	0.4238	5.91486	26.4097	15.601402	#	HT
2827	784	4	-0.8476	4.92143	18.407101	77.231102	#	OT
2828	784	5	0.4238	4.87739	19.268101	77.737099	#	HT
2829	784	5	0.4238	4.97884	18.5993	76.251099	#	HT
2830	785	4	-0.8476	12.4797	2.55391	12.533203	#	OT
2831	785	5	0.4238	13.2139	3.18871	12.292301	#	HT
2832	785	5	0.4238	11.9976	2.89301	13.341004	#	HT
2833	786	4	-0.8476	18.3724	11.4285	23.622902	#	OT
2834	786	5	0.4238	19.135799	11.822	24.135102	#	HT
2835	786	5	0.4238	17.6724	11.1086	24.261505	#	HT
2836	787	4	-0.8476	7.85148	0.704999	8.327004	#	OT
2837	787	5	0.4238	6.93221	1.07707	8.198502	#	HT
2838	787	5	0.4238	8.30362	0.619732	7.439102	#	HT
2839	788	4	-0.8476	20.0259	29.3197	25.179505	#	OT
2840	788	5	0.4238	19.7752	28.625999	25.854698	#	HT
2841	788	5	0.4238	20.7943	0.410509	25.524704	#	HT
2842	789	4	-0.8476	25.359699	23.8244	80.376099	#	OT
2843	789	5	0.4238	0.730311	23.437401	80.080101	#	HT
2844	789	5	0.4238	24.9911	24.407499	79.6521	#	HT
2845	790	4	-0.8476	19.899599	25.1005	72.986099	#	OT
2846	790	5	0.4238	20.8246	24.733299	72.8881	#	HT
2847	790	5	0.4238	19.9459	26.0231	73.369103	#	HT
2848	791	4	-0.8476	7.77581	21.111099	71.141098	#	OT
2849	791	5	0.4238	7.37931	21.490801	71.977104	#	HT
2850	791	5	0.4238	7.06569	21.0317	70.442101	#	HT
2851	792	4	-0.8476	10.5274	1.87165	26.8806	#	OT
2852	792	5	0.4238	10.082	0.976493	26.862702	#	HT
2853	792	5	0.4238	11.0037	2.02437	26.014702	#	HT
2854	793	4	-0.8476	23.9744	26.736799	34.427201	#	OT
2855	793	5	0.4238	24.2563	26.812901	33.470803	#	HT
2856	793	5	0.4238	24.0214	27.636499	34.861199	#	HT
2857	794	4	-0.8476	2.58583	4.4087	13.453102	#	OT
2858	794	5	0.4238	2.87019	4.7342	14.354801	#	HT
2859	794	5	0.4238	2.92325	3.47781	13.313103	#	HT
2860	795	4	-0.8476	10.8619	15.6781	64.036102	#	OT
2861	795	5	0.4238	10.0857	16.138399	64.467102	#	HT
2862	795	5	0.4238	10.5619	15.2425	63.187103	#	HT
2863	796	4	-0.8476	1.41182	2.91063	68.578102	#	OT
2864	796	5	0.4238	0.577645	2.73852	68.0541	#	HT
2865	796	5	0.4238	1.61924	3.88876	68.562103	#	HT
2866	797	4	-0.8476	17.9207	9.43566	30.521805	#	OT
2867	797	5	0.4238	17.1789	9.27687	29.870201	#	HT
2868	797	5	0.4238	17.851101	10.3643	30.886299	#	HT
2869	798	4	-0.8476	9.28132	7.08657	64.577103	#	OT
2870	798	5	0.4238	9.47501	7.85232	65.190102	#	HT
2871	798	5	0.4238	8.75256	6.39309	65.066101	#	HT
2872	799	4	-0.8476	15.7341	15.357	32.245804	#	OT
2873	799	5	0.4238	15.6554	16.2645	32.658402	#	HT
2874	799	5	0.4238	15.4738	14.6623	32.916306	#	HT
2875	800	4	-0.8476	21.8186	26.521799	21.525601	#	OT
2876	800	5	0.4238	22.404699	26.0891	20.840603	#	HT
2877	800	5	0.4238	20.938499	26.7549	21.111901	#	HT
2878	801	4	-0.8476	25.423	12.3524	11.209202	#	OT
2879	801	5	0.4238	0.745747	12.4511	11.765003	#	HT
2880	801	5	0.4238	0.159899	12.4233	10.240902	#	HT
2881	802	4	-0.8476	2.92462	10.2735	24.572502	#	OT
2882	802	5	0.4238	2.49663	10.6392	23.746002	#	HT
2883	802	5	0.4238	3.89556	10.5127	24.578804	#	HT
2884	803	4	-0.8476	18.2512	0.042579	80.259102	#	OT
2885	803	5	0.4238	18.709801	0.445806	81.051102	#	HT
2886	803	5	0.4238	17.3241	0.410549	80.188103	#	HT
2887	804	4	-0.8476	17.369801	28.3964	23.289101	#	OT
2888	804	5	0.4238	17.5599	28.290199	22.313103	#	HT
2889	804	5	0.4238	16.8901	29.260201	23.443199	#	HT
2890	805	4	-0.8476	11.0231	8.83207	26.567398	#	OT
2891	805	5	0.4238	11.2187	9.76779	26.861	#	HT
2892	805	5	0.4238	10.3086	8.44283	27.148804	#	HT
2893	806	4	-0.8476	4.19652	7.43855	56.211502	#	OT
2894	806	5	0.4238	5.069	7.24904	56.661904	#	HT
2895	806	5	0.4238	3.54706	6.70791	56.422203	#	HT
2896	807	4	-0.8476	17.141399	28.723499	36.593102	#	OT
2897	807	5	0.4238	16.2425	28.6015	37.013901	#	HT
2898	807	5	0.4238	17.249399	0.227859	36.3078	#	HT
2899	808	4	-0.8476	15.6209	26.0513	74.1651	#	OT
2900	808	5	0.4238	15.9378	26.6278	74.918099	#	HT
2901	808	5	0.4238	16.3326	25.997	73.464104	#	HT
2902	809	4	-0.8476	25.4034	23.966801	9.345902	#	OT
2903	809	5	0.4238	0.652636	24.613199	9.475403	#	HT
2904	809	5	0.4238	0.047756	23.4489	8.503201	#	HT
2905	810	4	-0.8476	9.43207	18.3899	65.035103	#	OT
2906	810	5	0.4238	9.69044	18.938299	65.830101	#	HT
2907	810	5	0.4238	9.8268	18.793301	64.210098	#	HT
2908	811	4	-0.8476	22.632299	3.39984	16.049801	#	OT
2909	811	5	0.4238	21.9811	4.14808	15.923302	#	HT
2910	811	5	0.4238	22.1376	2.56397	16.287602	#	HT
2911	812	4	-0.8476	11.3609	15.486	8.711304	#	OT
2912	812	5	0.4238	11.4273	15.1666	9.656601	#	HT
2913	812	5	0.4238	11.5882	16.459	8.671501	#	HT
2914	813	4	-0.8476	0.919405	23.322701	58.837105	#	OT
2915	813	5	0.4238	0.787348	23.454201	57.8545	#	HT
2916	813	5	0.4238	0.995434	22.345501	59.035103	#	HT
2917	814	4	-0.8476	20.416201	9.4397	36.5084	#	OT
2918	814	5	0.4238	20.9193	10.1535	36.995606	#	HT
2919	814	5	0.4238	19.646999	9.84951	36.018105	#	HT
2920	815	4	-0.8476	21.5275	3.60339	4.312901	#	OT
2921	815	5	0.4238	20.9084	4.25596	3.876003	#	HT
2922	815	5	0.4238	22.473801	3.85156	4.105503	#	HT
2923	816	4	-0.8476	14.218	13.6292	4.499802	#	OT
2924	816	5	0.4238	13.7507	14.0907	3.7458	#	HT
2925	816	5	0.4238	14.8275	12.926	4.133702	#	HT
2926	817	4	-0.8476	17.4205	9.03247	8.834202	#	OT
2927	817	5	0.4238	16.666201	8.89669	9.476601	#	HT
2928	817	5	0.4238	18.222401	9.36883	9.328003	#	HT
2929	818	4	-0.8476	19.847799	23.881901	12.745403	#	OT
2930	818	5	0.4238	20.4589	24.587999	13.103203	#	HT
2931	818	5	0.4238	20.377501	23.2206	12.214302	#	HT
2932	819	4	-0.8476	3.00367	29.2775	20.279103	#	OT
2933	819	5	0.4238	3.94761	0.099284	20.088803	#	HT
2934	819	5	0.4238	2.78975	28.438101	19.779404	#	HT
2935	820	4	-0.8476	9.88289	11.1816	13.885002	#	OT
2936	820	5	0.4238	10.2307	10.3354	13.481301	#	HT
2937	820	5	0.4238	10.2137	11.9636	13.356701	#	HT
2938	821	4	-0.8476	14.4659	6.40248	9.4986	#	OT
2939	821	5	0.4238	14.9236	6.41214	8.6096	#	HT
2940	821	5	0.4238	13.4754	6.43017	9.363903	#	HT
2941	822	4	-0.8476	19.5882	21.0893	18.304604	#	OT
2942	822	5	0.4238	18.679001	20.996	18.710404	#	HT
2943	822	5	0.4238	20.261801	20.6357	18.888104	#	HT
2944	823	4	-0.8476	20.368799	14.2544	30.981903	#	OT
2945	823	5	0.4238	20.648199	13.3154	30.780998	#	HT
2946	823	5	0.4238	20.1471	14.3355	31.953598	#	HT
2947	824	4	-0.8476	2.24584	12.2627	43.124001	#	OT
2948	824	5	0.4238	1.62554	11.6183	42.676903	#	HT
2949	824	5	0.4238	2.08691	12.2479	44.111199	#	HT
2950	825	4	-0.8476	23.8146	0.431835	32.654	#	OT
2951	825	5	0.4238	23.6639	29.439899	33.539299	#	HT
2952	825	5	0.4238	24.2391	29.2278	32.025803	#	HT
2953	826	4	-0.8476	19.1668	7.3241	82.307099	#	OT
2954	826	5	0.4238	18.68	6.86092	81.566101	#	HT
2955	826	5	0.4238	19.115299	6.76972	83.1371	#	HT
2956	827	4	-0.8476	4.52628	12.7716	25.470406	#	OT
2957	827	5	0.4238	5.41436	12.4127	25.757599	#	HT
2958	827	5	0.4238	4.37404	12.5523	24.506699	#	HT
2959	828	4	-0.8476	13.3969	25.4431	47.595406	#	OT
2960	828	5	0.4238	12.756	25.2391	48.335404	#	HT
2961	828	5	0.4238	12.9036	25.4725	46.726006	#	HT
2962	829	4	-0.8476	3.78744	21.3827	2.272202	#	OT
2963	829	5	0.4238	2.79576	21.348	2.1483	#	HT
2964	829	5	0.4238	4.1625	22.146099	1.746201	#	HT
2965	830	4	-0.8476	23.8452	9.11178	83.150101	#	OT
2966	830	5	0.4238	24.3461	9.57324	83.882103	#	HT
2967	830	5	0.4238	23.4144	9.79417	82.559105	#	HT
2968	831	4	-0.8476	1.12316	28.2682	68.904099	#	OT
2969	831	5	0.4238	0.882547	27.3722	68.531105	#	HT
2970	831	5	0.4238	1.65487	28.7789	68.228104	#	HT
2971	832	4	-0.8476	11.1733	12.7171	64.897103	#	OT
2972	832	5	0.4238	11.884	12.6727	64.195099	#	HT
2973	832	5	0.4238	10.7315	13.6137	64.868103	#	HT
2974	833	4	-0.8476	4.37985	12.0641	82.547104	#	OT
2975	833	5	0.4238	3.62836	12.6044	82.168099	#	HT
2976	833	5	0.4238	4.25652	11.1029	82.300102	#	HT
2977	834	4	-0.8476	10.7247	8.89433	6.154003	#	OT
2978	834	5	0.4238	11.3404	8.87133	5.366402	#	HT
2979	834	5	0.4238	11.0712	9.54557	6.829102	#	HT
2980	835	4	-0.8476	3.431	28.2491	41.3675	#	OT
2981	835	5	0.4238	4.42456	28.1556	41.303505	#	HT
2982	835	5	0.4238	3.08185	27.6248	42.066399	#	HT
2983	836	4	-0.8476	22.638901	29.180799	35.159905	#	OT
2984	836	5	0.4238	23.3773	29.409401	35.794304	#	HT
2985	836	5	0.4238	21.8911	0.387725	35.268898	#	HT
2986	837	4	-0.8476	0.170165	23.2834	70.295105	#	OT
2987	837	5	0.4238	24.7642	23.486601	69.931099	#	HT
2988	837	5	0.4238	0.20136	23.5238	71.266098	#	HT
2989	838	4	-0.8476	2.35189	12.0761	3.597702	#	OT
2990	838	5	0.4238	2.48346	11.4446	2.833603	#	HT
2991	838	5	0.4238	2.96371	11.8242	4.347504	#	HT
2992	839	4	-0.8476	5.61533	6.30195	79.243103	#	OT
2993	839	5	0.4238	4.66723	5.9919	79.172104	#	HT
2994	839	5	0.4238	5.7309	6.83249	80.0821	#	HT
2995	840	4	-0.8476	12.2931	28.6269	28.023003	#	OT
2996	840	5	0.4238	11.7688	27.8118	27.776505	#	HT
2997	840	5	0.4238	13.2299	28.3636	28.253205	#	HT
2998	841	4	-0.8476	16.4342	13.9097	36.440903	#	OT
2999	841	5	0.4238	16.5821	14.8211	36.824906	#	HT
3000	841	5	0.4238	16.2008	13.9903	35.471802	#	HT
3001	843	4	-0.8476	6.11495	27.180799	21.356404	#	OT
3002	843	5	0.4238	6.63161	27.9126	21.800801	#	HT
3003	843	5	0.4238	6.40687	27.097799	20.403603	#	HT
3004	844	4	-0.8476	23.8923	12.9103	36.142899	#	OT
3005	844	5	0.4238	23.971701	12.3301	35.332298	#	HT
3006	844	5	0.4238	24.5065	12.5726	36.856102	#	HT
3007	845	4	-0.8476	18.642799	10.6279	56.044304	#	OT
3008	845	5	0.4238	18.562599	9.90095	56.726303	#	HT
3009	845	5	0.4238	18.8717	10.2284	55.1567	#	HT
3010	846	4	-0.8476	3.31285	14.9213	26.681099	#	OT
3011	846	5	0.4238	3.67271	14.7145	27.590904	#	HT
3012	846	5	0.4238	3.51794	14.1637	26.061402	#	HT
3013	847	4	-0.8476	20.005301	27.052099	36.882698	#	OT
3014	847	5	0.4238	20.956301	27.1043	36.578003	#	HT
3015	847	5	0.4238	19.896601	26.2763	37.504303	#	HT
3016	848	4	-0.8476	16.2446	7.35516	40.487404	#	OT
3017	848	5	0.4238	16.3295	8.16803	41.063599	#	HT
3018	848	5	0.4238	16.033501	7.63175	39.549904	#	HT
3019	849	4	-0.8476	9.60401	6.95131	61.829102	#	OT
3020	849	5	0.4238	9.83574	5.99123	61.672104	#	HT
3021	849	5	0.4238	9.48747	7.11038	62.809105	#	HT
3022	850	4	-0.8476	6.10473	2.49065	33.597702	#	OT
3023	850	5	0.4238	5.95842	3.47592	33.509102	#	HT
3024	850	5	0.4238	5.53443	2.13418	34.337799	#	HT
3025	851	4	-0.8476	3.14949	1.55492	12.820202	#	OT
3026	851	5	0.4238	2.42249	1.43696	12.143704	#	HT
3027	851	5	0.4238	3.96906	1.06883	12.5168	#	HT
3028	852	4	-0.8476	6.28362	25.2348	36.819306	#	OT
3029	852	5	0.4238	6.22265	25.3321	37.812699	#	HT
3030	852	5	0.4238	6.94451	25.8936	36.459801	#	HT
3031	853	4	-0.8476	13.9328	4.02299	38.116104	#	OT
3032	853	5	0.4238	14.4692	4.18062	38.945198	#	HT
3033	853	5	0.4238	12.976	4.25727	38.288605	#	HT
3034	854	4	-0.8476	3.19346	17.6021	48.074105	#	OT
3035	854	5	0.4238	4.15919	17.8368	48.184899	#	HT
3036	854	5	0.4238	3.11601	16.682501	47.688904	#	HT
3037	855	4	-0.8476	24.5903	25.3999	78.244103	#	OT
3038	855	5	0.4238	25.0096	26.307699	78.2491	#	HT
3039	855	5	0.4238	25.1366	24.784	77.676102	#	HT
3040	856	4	-0.8476	21.752199	14.2579	54.859406	#	OT
3041	856	5	0.4238	21.669901	15.0815	55.420502	#	HT
3042	856	5	0.4238	21.241899	13.5114	55.2864	#	HT
3043	857	4	-0.8476	6.23512	10.309	25.664604	#	OT
3044	857	5	0.4238	6.06509	9.33407	25.808106	#	HT
3045	857	5	0.4238	6.86298	10.4282	24.8955	#	HT
3046	858	4	-0.8476	7.20901	18.1488	80.854103	#	OT
3047	858	5	0.4238	7.42634	17.6775	79.9991	#	HT
3048	858	5	0.4238	7.33476	17.520901	81.622101	#	HT
3049	859	4	-0.8476	4.13697	16.554501	74.314102	#	OT
3050	859	5	0.4238	4.38748	15.9918	73.5271	#	HT
3051	859	5	0.4238	3.42382	17.202801	74.048104	#	HT
3052	860	4	-0.8476	20.542299	26.315599	1.1362	#	OT
3053	860	5	0.4238	20.740499	26.268	2.1152	#	HT
3054	860	5	0.4238	21.0758	27.054001	0.723702	#	HT
3055	861	4	-0.8476	17.130199	11.4793	10.447502	#	OT
3056	861	5	0.4238	16.211901	11.0966	10.346501	#	HT
3057	861	5	0.4238	17.6392	10.9498	11.126202	#	HT
3058	862	4	-0.8476	20.230499	19.9496	67.864105	#	OT
3059	862	5	0.4238	20.0413	20.450701	67.019104	#	HT
3060	862	5	0.4238	21.1931	20.0627	68.1101	#	HT
3061	863	4	-0.8476	14.0238	14.0207	69.589104	#	OT
3062	863	5	0.4238	14.0653	13.2809	68.917099	#	HT
3063	863	5	0.4238	13.8557	14.8877	69.120102	#	HT
3064	864	4	-0.8476	10.8114	25.396299	55.180702	#	OT
3065	864	5	0.4238	9.91688	25.2924	55.615402	#	HT
3066	864	5	0.4238	11.5075	24.944099	55.738304	#	HT
3067	865	4	-0.8476	5.9998	14.2007	13.4487	#	OT
3068	865	5	0.4238	5.59346	14.1198	12.538601	#	HT
3069	865	5	0.4238	6.4666	15.0815	13.528301	#	HT
3070	866	4	-0.8476	21.3985	11.7232	14.726002	#	OT
3071	866	5	0.4238	22.3333	11.6701	14.374802	#	HT
3072	866	5	0.4238	21.284	11.0648	15.469902	#	HT
3073	867	4	-0.8476	13.5761	18.083401	47.795502	#	OT
3074	867	5	0.4238	13.3628	17.1457	48.069603	#	HT
3075	867	5	0.4238	12.8632	18.6991	48.131302	#	HT
3076	868	4	-0.8476	14.2646	4.42614	16.0793	#	OT
3077	868	5	0.4238	15.1263	4.33338	15.580403	#	HT
3078	868	5	0.4238	13.5139	4.08315	15.514603	#	HT
3079	869	4	-0.8476	13.59	2.72354	48.254601	#	OT
3080	869	5	0.4238	13.5508	1.73997	48.430802	#	HT
3081	869	5	0.4238	13.6444	3.2159	49.123299	#	HT
3082	870	4	-0.8476	17.098301	3.86394	76.890099	#	OT
3083	870	5	0.4238	16.2026	3.95585	76.455101	#	HT
3084	870	5	0.4238	17.7367	4.51496	76.480103	#	HT
3085	871	4	-0.8476	9.46621	7.18266	47.301201	#	OT
3086	871	5	0.4238	9.4967	6.25244	47.666901	#	HT
3087	871	5	0.4238	10.0311	7.78235	47.868004	#	HT
3088	872	4	-0.8476	15.5402	2.78973	19.157803	#	OT
3089	872	5	0.4238	14.7916	2.1714	18.918503	#	HT
3090	872	5	0.4238	16.400499	2.42523	18.801201	#	HT
3091	873	4	-0.8476	8.40803	15.1454	1.611103	#	OT
3092	873	5	0.4238	9.00507	14.3448	1.661503	#	HT
3093	873	5	0.4238	8.92857	15.9285	1.270802	#	HT
3094	874	4	-0.8476	16.382	26.016701	21.506104	#	OT
3095	874	5	0.4238	17.063499	26.2988	20.830803	#	HT
3096	874	5	0.4238	16.801001	25.385599	22.158905	#	HT
3097	875	4	-0.8476	13.857	26.8375	36.332298	#	OT
3098	875	5	0.4238	14.488	26.9032	35.559303	#	HT
3099	875	5	0.4238	14.2251	26.2008	37.009903	#	HT
3100	876	4	-0.8476	17.0849	10.2692	4.6231	#	OT
3101	876	5	0.4238	17.5548	11.0293	4.174301	#	HT
3102	876	5	0.4238	17.744699	9.73499	5.151604	#	HT
3103	877	4	-0.8476	17.499701	17.2124	84.107102	#	OT
3104	877	5	0.4238	16.9027	16.490299	83.758103	#	HT
3105	877	5	0.4238	17.0557	17.6675	84.879105	#	HT
3106	878	4	-0.8476	15.3342	26.752701	12.347302	#	OT
3107	878	5	0.4238	14.8887	26.4846	13.2015	#	HT
3108	878	5	0.4238	15.2193	27.735901	12.205803	#	HT
3109	879	4	-0.8476	0.56754	19.5401	56.326004	#	OT
3110	879	5	0.4238	25.4872	19.5298	55.513603	#	HT
3111	879	5	0.4238	0.93922	18.6248	56.481003	#	HT
3112	880	4	-0.8476	1.18056	6.57241	18.6404	#	OT
3113	880	5	0.4238	0.7785	5.66618	18.509602	#	HT
3114	880	5	0.4238	1.40742	6.96803	17.750401	#	HT
3115	881	4	-0.8476	25.017099	4.53447	15.799603	#	OT
3116	881	5	0.4238	24.991301	5.30295	15.160202	#	HT
3117	881	5	0.4238	24.087099	4.20497	15.962403	#	HT
3118	882	4	-0.8476	7.25034	21.284	16.994003	#	OT
3119	882	5	0.4238	8.18389	21.1703	16.654103	#	HT
3120	882	5	0.4238	6.61667	20.7882	16.400204	#	HT
3121	883	4	-0.8476	0.367449	24.340599	1.066803	#	OT
3122	883	5	0.4238	0.790099	25.228201	1.250103	#	HT
3123	883	5	0.4238	24.8909	24.3908	1.263302	#	HT
3124	884	4	-0.8476	3.46551	7.89628	32.926903	#	OT
3125	884	5	0.4238	3.5933	8.87707	32.779503	#	HT
3126	884	5	0.4238	3.77974	7.39437	32.121102	#	HT
3127	885	4	-0.8476	11.4736	3.41143	4.234101	#	OT
3128	885	5	0.4238	12.0692	4.0703	4.693703	#	HT
3129	885	5	0.4238	11.6442	3.43831	3.249203	#	HT
3130	886	4	-0.8476	13.9888	17.0445	28.306305	#	OT
3131	886	5	0.4238	13.1282	16.788099	28.746102	#	HT
3132	886	5	0.4238	14.0192	16.6602	27.383599	#	HT
3133	887	4	-0.8476	8.24514	1.5777	81.757103	#	OT
3134	887	5	0.4238	9.1999	1.40495	81.9991	#	HT
3135	887	5	0.4238	8.05222	1.18244	80.859101	#	HT
3136	888	4	-0.8476	4.54348	20.956301	5.006901	#	OT
3137	888	5	0.4238	4.42989	20.8944	4.015301	#	HT
3138	888	5	0.4238	5.51443	21.053101	5.225701	#	HT
3139	889	4	-0.8476	23.900999	7.59369	61.335098	#	OT
3140	889	5	0.4238	22.9762	7.32448	61.066101	#	HT
3141	889	5	0.4238	24.119699	7.1924	62.225105	#	HT
3142	890	4	-0.8476	8.64899	0.087812	64.536102	#	OT
3143	890	5	0.4238	8.66119	0.378721	63.579102	#	HT
3144	890	5	0.4238	9.27378	0.660638	65.067101	#	HT
3145	891	4	-0.8476	9.75055	5.00258	1.8946	#	OT
3146	891	5	0.4238	10.3714	5.77635	2.020603	#	HT
3147	891	5	0.4238	10.2005	4.30068	1.342503	#	HT
3148	892	4	-0.8476	16.3381	7.84494	73.5121	#	OT
3149	892	5	0.4238	16.5571	8.44521	74.281105	#	HT
3150	892	5	0.4238	15.5946	8.24637	72.977104	#	HT
3151	893	4	-0.8476	11.2632	4.60116	46.474503	#	OT
3152	893	5	0.4238	10.5574	4.37776	47.146698	#	HT
3153	893	5	0.4238	10.9257	5.31568	45.861702	#	HT
3154	894	4	-0.8476	24.4534	4.67286	22.483704	#	OT
3155	894	5	0.4238	24.579	5.46285	23.083801	#	HT
3156	894	5	0.4238	23.5786	4.23402	22.689003	#	HT
3157	895	4	-0.8476	24.989201	6.73413	8.542202	#	OT
3158	895	5	0.4238	24.4498	7.08385	7.776203	#	HT
3159	895	5	0.4238	24.4006	6.19743	9.146801	#	HT
3160	896	4	-0.8476	18.120399	14.7326	71.5261	#	OT
3161	896	5	0.4238	18.736601	15.3405	72.0271	#	HT
3162	896	5	0.4238	17.562599	15.2703	70.894104	#	HT
3163	897	4	-0.8476	18.193501	6.0908	15.413002	#	OT
3164	897	5	0.4238	18.916901	6.43862	16.009503	#	HT
3165	897	5	0.4238	18.309799	6.46703	14.493801	#	HT
3166	898	4	-0.8476	14.3286	12.2494	73.650101	#	OT
3167	898	5	0.4238	14.4627	13.072	73.098099	#	HT
3168	898	5	0.4238	14.955	12.2656	74.4301	#	HT
3169	899	4	-0.8476	24.667299	21.8162	28.967705	#	OT
3170	899	5	0.4238	25.046101	21.195299	29.654	#	HT
3171	899	5	0.4238	25.1576	22.687201	28.999603	#	HT
3172	900	4	-0.8476	17.535801	25.384001	36.894402	#	OT
3173	900	5	0.4238	16.655399	25.1747	37.32	#	HT
3174	900	5	0.4238	17.947201	24.5411	36.5476	#	HT
3175	901	4	-0.8476	19.3601	10.9492	28.026901	#	OT
3176	901	5	0.4238	19.568501	11.3774	27.147598	#	HT
3177	901	5	0.4238	20.0812	11.1691	28.683998	#	HT
3178	902	4	-0.8476	20.4118	24.7479	23.116905	#	OT
3179	902	5	0.4238	20.948099	25.442801	22.637901	#	HT
3180	902	5	0.4238	19.700899	25.192499	23.661804	#	HT
3181	903	4	-0.8476	8.67866	2.39203	34.948403	#	OT
3182	903	5	0.4238	7.87073	2.06423	34.458702	#	HT
3183	903	5	0.4238	8.61353	3.38199	35.073899	#	HT
3184	904	4	-0.8476	17.655899	16.4792	56.639504	#	OT
3185	904	5	0.4238	17.684799	15.4798	56.659699	#	HT
3186	904	5	0.4238	16.717699	16.7822	56.472504	#	HT
3187	905	4	-0.8476	21.2131	22.8794	15.032601	#	OT
3188	905	5	0.4238	21.4023	23.854099	14.913304	#	HT
3189	905	5	0.4238	21.9848	22.3454	14.687203	#	HT
3190	906	4	-0.8476	17.6234	23.065201	28.140305	#	OT
3191	906	5	0.4238	18.526501	22.6838	27.942803	#	HT
3192	906	5	0.4238	17.178499	23.3288	27.284401	#	HT
3193	907	4	-0.8476	24.5583	17.3221	30.590599	#	OT
3194	907	5	0.4238	24.331699	17.8967	29.8041	#	HT
3195	907	5	0.4238	24.9279	16.4498	30.2705	#	HT
3196	908	4	-0.8476	0.399677	10.6166	41.5933	#	OT
3197	908	5	0.4238	0.526739	9.6312	41.479805	#	HT
3198	908	5	0.4238	0.327472	11.0491	40.694603	#	HT
3199	909	4	-0.8476	19.305599	26.016199	16.485703	#	OT
3200	909	5	0.4238	18.727301	25.213499	16.339703	#	HT
3201	909	5	0.4238	18.8501	26.644899	17.116101	#	HT
3202	910	4	-0.8476	6.35546	3.22166	27.626206	#	OT
3203	910	5	0.4238	5.38286	3.1632	27.4012	#	HT
3204	910	5	0.4238	6.88298	3.36796	26.789299	#	HT
3205	911	4	-0.8476	10.5872	10.4114	16.451702	#	OT
3206	911	5	0.4238	10.5786	9.54234	16.946301	#	HT
3207	911	5	0.4238	11.5239	10.7583	16.403603	#	HT
3208	912	4	-0.8476	17.493401	8.01908	18.318901	#	OT
3209	912	5	0.4238	16.8878	8.28254	19.069802	#	HT
3210	912	5	0.4238	16.946899	7.80828	17.508301	#	HT
3211	913	4	-0.8476	20.3971	21.5832	35.973602	#	OT
3212	913	5	0.4238	20.538401	21.636	34.985001	#	HT
3213	913	5	0.4238	19.4825	21.919399	36.197998	#	HT
3214	914	4	-0.8476	1.03841	5.57181	25.653603	#	OT
3215	914	5	0.4238	0.847463	5.10356	26.516304	#	HT
3216	914	5	0.4238	1.30971	4.90112	24.963303	#	HT
3217	915	4	-0.8476	6.79791	7.32895	11.185303	#	OT
3218	915	5	0.4238	7.29713	6.54837	10.8092	#	HT
3219	915	5	0.4238	7.20232	8.17819	10.845803	#	HT
3220	916	4	-0.8476	22.9111	13.6399	11.0849	#	OT
3221	916	5	0.4238	22.869301	13.6903	10.087002	#	HT
3222	916	5	0.4238	23.7743	13.2176	11.361401	#	HT
3223	917	4	-0.8476	7.40768	1.73543	31.230904	#	OT
3224	917	5	0.4238	8.11332	1.04931	31.407799	#	HT
3225	917	5	0.4238	7.01596	2.04204	32.098404	#	HT
3226	918	4	-0.8476	6.4082	3.51034	36.7752	#	OT
3227	918	5	0.4238	7.16998	3.97595	36.3247	#	HT
3228	918	5	0.4238	6.68442	3.23267	37.695305	#	HT
3229	919	4	-0.8476	8.29282	29.438999	17.531002	#	OT
3230	919	5	0.4238	9.10045	29.2015	18.070801	#	HT
3231	919	5	0.4238	7.48756	0.003339	18.123802	#	HT
3232	920	4	-0.8476	21.876101	3.43228	68.625099	#	OT
3233	920	5	0.4238	21.4883	3.02068	69.450104	#	HT
3234	920	5	0.4238	21.493299	4.34727	68.4981	#	HT
3235	921	4	-0.8476	20.7509	23.613001	17.757702	#	OT
3236	921	5	0.4238	21.517099	24.2519	17.689003	#	HT
3237	921	5	0.4238	20.1318	23.9118	18.483902	#	HT
3238	922	4	-0.8476	8.81373	16.8596	85.710098	#	OT
3239	922	5	0.4238	9.47624	16.1194	85.825104	#	HT
3240	922	5	0.4238	7.95685	16.613199	86.163101	#	HT
3241	923	4	-0.8476	9.79423	23.144501	83.268105	#	OT
3242	923	5	0.4238	10.528	22.528099	82.982102	#	HT
3243	923	5	0.4238	9.1013	22.627399	83.770104	#	HT
3244	924	4	-0.8476	7.64913	11.6248	6.243202	#	OT
3245	924	5	0.4238	6.81711	11.9399	5.786701	#	HT
3246	924	5	0.4238	7.41409	10.9275	6.920304	#	HT
3247	925	4	-0.8476	11.6769	4.74784	26.251206	#	OT
3248	925	5	0.4238	12.593	4.35491	26.331001	#	HT
3249	925	5	0.4238	11.4474	5.2327	27.095101	#	HT
3250	926	4	-0.8476	18.392401	24.506001	65.488098	#	OT
3251	926	5	0.4238	18.291	23.937201	66.3041	#	HT
3252	926	5	0.4238	19.138	24.1504	64.924103	#	HT
3253	927	4	-0.8476	9.37201	2.75025	21.754704	#	OT
3254	927	5	0.4238	9.9844	1.9633	21.830101	#	HT
3255	927	5	0.4238	9.34567	3.06235	20.805	#	HT
3256	928	4	-0.8476	14.9527	13.0778	57.525803	#	OT
3257	928	5	0.4238	14.6423	13.5705	56.712898	#	HT
3258	928	5	0.4238	14.5431	13.4879	58.341103	#	HT
3259	929	4	-0.8476	1.39339	12.4055	69.236099	#	OT
3260	929	5	0.4238	0.557656	12.954	69.2631	#	HT
3261	929	5	0.4238	2.15606	12.9748	68.9291	#	HT
3262	930	4	-0.8476	8.73038	23.5294	41.193802	#	OT
3263	930	5	0.4238	7.95374	23.9709	40.744499	#	HT
3264	930	5	0.4238	9.55049	23.6472	40.633904	#	HT
3265	931	4	-0.8476	0.064475	24.865299	13.736202	#	OT
3266	931	5	0.4238	0.054546	23.8785	13.897503	#	HT
3267	931	5	0.4238	25.1563	25.061701	12.845902	#	HT
3268	932	4	-0.8476	3.01378	23.042	6.306503	#	OT
3269	932	5	0.4238	2.24989	22.680599	6.841202	#	HT
3270	932	5	0.4238	3.65686	22.303699	6.102902	#	HT
3271	933	4	-0.8476	12.7075	22.346201	62.244103	#	OT
3272	933	5	0.4238	12.1793	22.874001	62.909104	#	HT
3273	933	5	0.4238	12.101	21.7118	61.764099	#	HT
3274	934	4	-0.8476	9.86792	11.6881	79.403099	#	OT
3275	934	5	0.4238	10.2385	11.6378	78.475105	#	HT
3276	934	5	0.4238	9.09494	11.0594	79.487099	#	HT
3277	935	4	-0.8476	8.22089	27.700001	3.208603	#	OT
3278	935	5	0.4238	9.19123	27.766001	3.4412	#	HT
3279	935	5	0.4238	7.7802	27.028799	3.804604	#	HT
3280	936	4	-0.8476	10.3584	24.848	76.343102	#	OT
3281	936	5	0.4238	11.2714	24.893	76.7491	#	HT
3282	936	5	0.4238	9.66985	24.8846	77.0681	#	HT
3283	937	4	-0.8476	4.66314	24.4729	28.317505	#	OT
3284	937	5	0.4238	3.86506	24.951401	27.951302	#	HT
3285	937	5	0.4238	5.49439	24.9653	28.059502	#	HT
3286	938	4	-0.8476	1.04939	23.377501	3.913601	#	OT
3287	938	5	0.4238	0.143908	23.156799	4.2761	#	HT
3288	938	5	0.4238	1.09376	23.1201	2.948303	#	HT
3289	939	4	-0.8476	7.45501	21.326799	76.785103	#	OT
3290	939	5	0.4238	8.11121	21.5413	77.509102	#	HT
3291	939	5	0.4238	6.53258	21.2964	77.170105	#	HT
3292	940	4	-0.8476	5.58652	9.06601	21.578503	#	OT
3293	940	5	0.4238	6.37948	9.48792	22.018002	#	HT
3294	940	5	0.4238	5.89626	8.43286	20.869103	#	HT
3295	941	4	-0.8476	14.0267	6.23612	74.508103	#	OT
3296	941	5	0.4238	14.0335	6.54432	75.459099	#	HT
3297	941	5	0.4238	14.9231	6.40287	74.097099	#	HT
3298	942	4	-0.8476	5.91066	5.24279	17.221104	#	OT
3299	942	5	0.4238	6.79177	5.12306	16.763603	#	HT
3300	942	5	0.4238	5.59662	4.36195	17.575401	#	HT
3301	943	4	-0.8476	17.4042	6.14851	80.246102	#	OT
3302	943	5	0.4238	16.8801	6.23381	81.093102	#	HT
3303	943	5	0.4238	17.1227	5.31998	79.7621	#	HT
3304	944	4	-0.8476	23.2363	12.685	48.888802	#	OT
3305	944	5	0.4238	22.8491	12.4292	49.774605	#	HT
3306	944	5	0.4238	24.066601	12.1532	48.721901	#	HT
3307	945	4	-0.8476	19.360701	5.12655	28.316101	#	OT
3308	945	5	0.4238	18.5002	5.09799	27.807305	#	HT
3309	945	5	0.4238	19.7864	4.22179	28.302101	#	HT
3310	946	4	-0.8476	19.076099	3.1913	81.884102	#	OT
3311	946	5	0.4238	18.3923	3.31246	81.164101	#	HT
3312	946	5	0.4238	19.935301	2.8795	81.478104	#	HT
3313	947	4	-0.8476	13.8175	24.194401	33.309799	#	OT
3314	947	5	0.4238	13.9979	25.1399	33.581001	#	HT
3315	947	5	0.4238	14.4092	23.5795	33.8312	#	HT
3316	948	4	-0.8476	23.618299	2.3855	9.418503	#	OT
3317	948	5	0.4238	23.0436	1.61396	9.691303	#	HT
3318	948	5	0.4238	23.280899	2.76403	8.556603	#	HT
3319	949	4	-0.8476	2.72706	27.8922	74.595101	#	OT
3320	949	5	0.4238	3.31391	27.445101	73.920105	#	HT
3321	949	5	0.4238	2.87032	28.881201	74.558106	#	HT
3322	950	4	-0.8476	20.622601	13.1782	67.9161	#	OT
3323	950	5	0.4238	19.773199	13.6349	67.6511	#	HT
3324	950	5	0.4238	20.811399	12.4308	67.279099	#	HT
3325	951	4	-0.8476	5.46057	13.1754	34.078102	#	OT
3326	951	5	0.4238	4.95859	12.4641	33.586205	#	HT
3327	951	5	0.4238	5.1437	14.0752	33.778	#	HT
3328	953	4	-0.8476	21.5212	6.35382	81.134102	#	OT
3329	953	5	0.4238	21.2043	5.81067	80.357102	#	HT
3330	953	5	0.4238	20.7334	6.73828	81.615105	#	HT
3331	954	4	-0.8476	24.4662	18.4606	54.423401	#	OT
3332	954	5	0.4238	24.293699	17.569	54.0047	#	HT
3333	954	5	0.4238	23.875	18.5739	55.221901	#	HT
3334	955	4	-0.8476	20.4807	15.8967	65.145104	#	OT
3335	955	5	0.4238	19.758301	15.5108	65.719101	#	HT
3336	955	5	0.4238	21.305	15.3362	65.225105	#	HT
3337	956	4	-0.8476	6.97999	0.210066	36.4291	#	OT
3338	956	5	0.4238	7.67369	0.904698	36.619599	#	HT
3339	956	5	0.4238	6.11202	0.656608	36.2118	#	HT
3340	957	4	-0.8476	25.1961	6.62173	55.935402	#	OT
3341	957	5	0.4238	24.7213	5.75217	55.799706	#	HT
3342	957	5	0.4238	24.995399	7.23402	55.1707	#	HT
3343	958	4	-0.8476	10.7583	19.554899	18.682003	#	OT
3344	958	5	0.4238	9.89631	19.1443	18.384602	#	HT
3345	958	5	0.4238	10.733	19.7036	19.670601	#	HT
3346	959	4	-0.8476	12.2605	12.0818	36.229302	#	OT
3347	959	5	0.4238	12.6985	12.9807	36.241501	#	HT
3348	959	5	0.4238	12.9116	11.3982	35.899605	#	HT
3349	960	4	-0.8476	11.0695	1.29194	6.890301	#	OT
3350	960	5	0.4238	10.3034	0.759889	6.529801	#	HT
3351	960	5	0.4238	11.0972	2.18407	6.439404	#	HT
3352	961	4	-0.8476	12.2932	23.673599	1.823502	#	OT
3353	961	5	0.4238	13.0516	23.578501	2.468304	#	HT
3354	961	5	0.4238	12.3735	24.5457	1.340702	#	HT
3355	962	4	-0.8476	21.2094	24.4179	34.1399	#	OT
3356	962	5	0.4238	21.7204	23.8899	34.818199	#	HT
3357	962	5	0.4238	20.516899	23.834299	33.715805	#	HT
3358	963	4	-0.8476	3.08802	18.304899	17.420403	#	OT
3359	963	5	0.4238	3.67757	18.8773	17.990303	#	HT
3360	963	5	0.4238	2.94828	17.4214	17.8675	#	HT
3361	964	4	-0.8476	24.1782	4.93377	68.9021	#	OT
3362	964	5	0.4238	23.451401	4.33264	68.5691	#	HT
3363	964	5	0.4238	24.447701	4.65315	69.823105	#	HT
3364	965	4	-0.8476	9.51292	21.823799	9.120602	#	OT
3365	965	5	0.4238	8.76816	21.487301	9.696903	#	HT
3366	965	5	0.4238	10.2111	21.113701	9.029801	#	HT
3367	966	4	-0.8476	9.16554	7.36895	13.776501	#	OT
3368	966	5	0.4238	8.55029	6.58449	13.854504	#	HT
3369	966	5	0.4238	9.7645	7.24544	12.985302	#	HT
3370	967	4	-0.8476	14.2904	19.4653	50.4329	#	OT
3371	967	5	0.4238	13.7206	19.6971	49.6446	#	HT
3372	967	5	0.4238	13.8168	19.7251	51.274506	#	HT
3373	968	4	-0.8476	5.34792	1.72111	7.7029	#	OT
3374	968	5	0.4238	5.15836	1.87469	6.7332	#	HT
3375	968	5	0.4238	4.5612	1.27516	8.129803	#	HT
3376	969	4	-0.8476	14.9007	25.0268	54.812203	#	OT
3377	969	5	0.4238	14.6389	25.9051	55.212403	#	HT
3378	969	5	0.4238	15.7141	24.6777	55.277603	#	HT
3379	971	4	-0.8476	11.6944	28.9109	12.032002	#	OT
3380	971	5	0.4238	11.635	28.1024	11.446602	#	HT
3381	971	5	0.4238	11.7417	28.6264	12.989502	#	HT
3382	972	4	-0.8476	19.0555	23.898701	3.947102	#	OT
3383	972	5	0.4238	19.8587	24.1301	3.398201	#	HT
3384	972	5	0.4238	18.249001	24.348801	3.563702	#	HT
3385	973	4	-0.8476	8.69709	26.6994	64.726105	#	OT
3386	973	5	0.4238	8.77889	27.695499	64.759102	#	HT
3387	973	5	0.4238	7.86657	26.417	65.206101	#	HT
3388	974	4	-0.8476	3.17101	5.81871	3.800904	#	OT
3389	974	5	0.4238	2.67748	4.94954	3.769802	#	HT
3390	974	5	0.4238	2.74024	6.42277	4.471401	#	HT
3391	975	4	-0.8476	14.0652	9.75811	72.6101	#	OT
3392	975	5	0.4238	13.0844	9.74925	72.8051	#	HT
3393	975	5	0.4238	14.4544	10.6331	72.899101	#	HT
3394	976	4	-0.8476	16.913401	19.430599	55.582298	#	OT
3395	976	5	0.4238	17.866301	19.1399	55.669106	#	HT
3396	976	5	0.4238	16.373301	19.027	56.320801	#	HT
3397	977	4	-0.8476	9.6468	18.986099	75.686104	#	OT
3398	977	5	0.4238	8.68868	19.152399	75.453102	#	HT
3399	977	5	0.4238	10.2291	19.6154	75.171105	#	HT
3400	978	4	-0.8476	13.5987	4.3204	63.0961	#	OT
3401	978	5	0.4238	14.0726	3.87697	63.856102	#	HT
3402	978	5	0.4238	13.3391	5.24909	63.3601	#	HT
3403	979	4	-0.8476	25.1926	2.32994	43.292504	#	OT
3404	979	5	0.4238	0.612371	1.94395	43.288605	#	HT
3405	979	5	0.4238	24.5261	1.59904	43.439202	#	HT
3406	980	4	-0.8476	22.8482	12.0713	21.322102	#	OT
3407	980	5	0.4238	22.5672	11.119	21.440903	#	HT
3408	980	5	0.4238	23.8109	12.1688	21.574501	#	HT
3409	981	4	-0.8476	14.753	11.4543	61.002098	#	OT
3410	981	5	0.4238	14.5787	12.3942	60.709099	#	HT
3411	981	5	0.4238	14.3493	10.8192	60.344101	#	HT
3412	982	4	-0.8476	3.24291	15.0775	52.9403	#	OT
3413	982	5	0.4238	2.55388	15.2608	53.641503	#	HT
3414	982	5	0.4238	2.79414	14.7449	52.110901	#	HT
3415	983	4	-0.8476	12.7473	13.4581	29.634804	#	OT
3416	983	5	0.4238	13.4393	13.4349	28.9133	#	HT
3417	983	5	0.4238	12.4894	14.4066	29.818802	#	HT
3418	984	4	-0.8476	17.7929	5.7283	1.133103	#	OT
3419	984	5	0.4238	17.739799	4.74013	0.989201	#	HT
3420	984	5	0.4238	16.944599	6.04985	1.553803	#	HT
3421	985	4	-0.8476	3.11861	8.78643	84.7211	#	OT
3422	985	5	0.4238	3.31862	9.00492	83.765099	#	HT
3423	985	5	0.4238	3.92236	8.98179	85.283104	#	HT
3424	986	4	-0.8476	16.7775	5.84775	34.526604	#	OT
3425	986	5	0.4238	16.558599	5.0759	33.929703	#	HT
3426	986	5	0.4238	16.654499	6.70334	34.023804	#	HT
3427	987	4	-0.8476	8.62089	18.7173	17.460201	#	OT
3428	987	5	0.4238	8.73567	18.216101	16.602501	#	HT
3429	987	5	0.4238	7.84146	18.3435	17.963001	#	HT
3430	988	4	-0.8476	14.9521	17.5235	57.255303	#	OT
3431	988	5	0.4238	14.1532	18.114599	57.144005	#	HT
3432	988	5	0.4238	15.0729	17.305201	58.224098	#	HT
3433	989	4	-0.8476	6.59579	26.1766	27.668205	#	OT
3434	989	5	0.4238	7.58955	26.283501	27.699906	#	HT
3435	989	5	0.4238	6.27147	26.349199	26.738205	#	HT
3436	990	4	-0.8476	5.10358	1.57369	29.726799	#	OT
3437	990	5	0.4238	4.88689	1.02004	30.530899	#	HT
3438	990	5	0.4238	4.35852	1.50395	29.0635	#	HT
3439	991	4	-0.8476	19.077299	28.288799	63.9161	#	OT
3440	991	5	0.4238	18.532101	27.4639	63.767105	#	HT
3441	991	5	0.4238	18.4688	29.0669	64.072106	#	HT
3442	992	4	-0.8476	1.54388	28.6534	62.492104	#	OT
3443	992	5	0.4238	1.27688	27.709999	62.688103	#	HT
3444	992	5	0.4238	2.4068	28.8587	62.953102	#	HT
3445	993	4	-0.8476	21.249201	9.18034	16.616402	#	OT
3446	993	5	0.4238	20.3195	9.18468	16.2481	#	HT
3447	993	5	0.4238	21.538601	8.23718	16.779801	#	HT
3448	994	4	-0.8476	13.1457	11.4686	15.613503	#	OT
3449	994	5	0.4238	13.1754	12.4668	15.561604	#	HT
3450	994	5	0.4238	13.5491	11.1676	16.477703	#	HT
3451	995	4	-0.8476	19.9939	2.86695	64.1511	#	OT
3452	995	5	0.4238	20.466499	2.33805	64.856102	#	HT
3453	995	5	0.4238	19.7838	2.27368	63.3741	#	HT
3454	996	4	-0.8476	15.768	22.020599	0.980103	#	OT
3455	996	5	0.4238	15.1346	22.217199	1.728401	#	HT
3456	996	5	0.4238	15.9661	22.864	0.480702	#	HT
3457	997	4	-0.8476	24.3465	11.5549	8.273102	#	OT
3458	997	5	0.4238	24.1754	12.4385	7.8372	#	HT
3459	997	5	0.4238	23.503799	11.2238	8.697602	#	HT
3460	998	4	-0.8476	6.88909	4.24233	30.0588	#	OT
3461	998	5	0.4238	6.1394	4.9041	30.053002	#	HT
3462	998	5	0.4238	7.71257	4.67473	30.426003	#	HT
3463	999	4	-0.8476	25.385401	27.2465	46.4067	#	OT
3464	999	5	0.4238	0.513842	27.1077	45.643501	#	HT
3465	999	5	0.4238	24.564199	27.714001	46.0793	#	HT
3466	1000	4	-0.8476	17.4468	9.34161	35.487999	#	OT
3467	1000	5	0.4238	17.075001	8.81753	36.254303	#	HT
3468	1000	5	0.4238	17.2153	8.88547	34.6288	#	HT
3469	1001	4	-0.8476	11.0137	21.3846	1.1357	#	OT
3470	1001	5	0.4238	11.144	22.375299	1.175701	#	HT
3471	1001	5	0.4238	11.903	20.934299	1.056301	#	HT
3472	1002	4	-0.8476	19.9762	19.528999	31.442505	#	OT
3473	1002	5	0.4238	19.9333	20.438601	31.855805	#	HT
3474	1002	5	0.4238	19.9291	18.834299	32.160202	#	HT
3475	1003	4	-0.8476	10.3952	7.39673	74.037102	#	OT
3476	1003	5	0.4238	10.8474	6.59497	73.647103	#	HT
3477	1003	5	0.4238	9.62219	7.10253	74.599098	#	HT
3478	1004	4	-0.8476	11.244	1.97998	33.405701	#	OT
3479	1004	5	0.4238	10.5462	2.25884	34.065499	#	HT
3480	1004	5	0.4238	10.8062	1.52719	32.628899	#	HT
3481	1005	4	-0.8476	23.710699	16.461599	3.161801	#	OT
3482	1005	5	0.4238	23.271299	15.8086	3.778702	#	HT
3483	1005	5	0.4238	23.253901	16.4394	2.272503	#	HT
3484	1006	4	-0.8476	20.1821	24.024599	86.042099	#	OT
3485	1006	5	0.4238	20.762501	24.346701	85.295105	#	HT
3486	1006	5	0.4238	20.545401	24.3566	86.913101	#	HT
3487	1007	4	-0.8476	8.15672	9.37607	15.330303	#	OT
3488	1007	5	0.4238	8.5133	8.65117	14.740902	#	HT
3489	1007	5	0.4238	7.43548	9.00536	15.915501	#	HT
3490	1008	4	-0.8476	8.26023	9.60666	82.572106	#	OT
3491	1008	5	0.4238	8.86703	9.95646	81.858101	#	HT
3492	1008	5	0.4238	8.76264	8.96516	83.1511	#	HT
3493	1009	4	-0.8476	24.1689	7.57695	58.244103	#	OT
3494	1009	5	0.4238	24.5481	7.54908	57.318901	#	HT
3495	1009	5	0.4238	24.1852	6.6583	58.6381	#	HT
3496	1010	4	-0.8476	0.580242	13.7839	32.358803	#	OT
3497	1010	5	0.4238	25.095301	13.8009	32.514305	#	HT
3498	1010	5	0.4238	0.849592	12.8805	32.025002	#	HT
3499	1011	4	-0.8476	15.1851	14.4495	62.451103	#	OT
3500	1011	5	0.4238	14.2954	14.4614	62.907105	#	HT
3501	1011	5	0.4238	15.6987	13.6427	62.743103	#	HT
3502	1012	4	-0.8476	3.24534	11.1366	71.3181	#	OT
3503	1012	5	0.4238	4.22881	11.3123	71.274101	#	HT
3504	1012	5	0.4238	2.77814	11.6816	70.621102	#	HT
3505	1013	4	-0.8476	4.24278	2.16854	84.925102	#	OT
3506	1013	5	0.4238	4.20009	2.4739	83.974098	#	HT
3507	1013	5	0.4238	5.16377	2.32168	85.284104	#	HT
3508	1014	4	-0.8476	22.3839	18.973101	62.812103	#	OT
3509	1014	5	0.4238	22.952801	18.177799	63.022103	#	HT
3510	1014	5	0.4238	22.6329	19.729601	63.417099	#	HT
3511	1015	4	-0.8476	20.633101	21.697901	5.276901	#	OT
3512	1015	5	0.4238	21.005501	21.0301	5.921402	#	HT
3513	1015	5	0.4238	21.204399	21.724001	4.4566	#	HT
3514	1016	4	-0.8476	17.504101	18.424101	30.711701	#	OT
3515	1016	5	0.4238	18.4799	18.5889	30.855705	#	HT
3516	1016	5	0.4238	17.046101	18.3403	31.596703	#	HT
3517	1017	4	-0.8476	19.149599	17.728399	33.9356	#	OT
3518	1017	5	0.4238	19.1022	18.1483	34.841904	#	HT
3519	1017	5	0.4238	18.228701	17.4814	33.634003	#	HT
3520	1018	4	-0.8476	3.90921	27.8657	13.782501	#	OT
3521	1018	5	0.4238	4.50895	27.921499	12.984204	#	HT
3522	1018	5	0.4238	4.39972	27.431801	14.538201	#	HT
3523	1019	4	-0.8476	2.81894	10.5008	27.582504	#	OT
3524	1019	5	0.4238	3.70329	10.8234	27.245201	#	HT
3525	1019	5	0.4238	2.54103	11.052	28.369301	#	HT
3526	1020	4	-0.8476	9.1701	1.28593	15.3932	#	OT
3527	1020	5	0.4238	8.97798	0.971291	16.322701	#	HT
3528	1020	5	0.4238	9.99723	1.84794	15.395802	#	HT
3529	1021	4	-0.8476	20.1227	23.3757	63.961106	#	OT
3530	1021	5	0.4238	19.839399	23.878201	63.144104	#	HT
3531	1021	5	0.4238	21.0362	23.674999	64.237099	#	HT
3532	1022	4	-0.8476	7.84838	11.2112	17.451801	#	OT
3533	1022	5	0.4238	8.32989	11.0367	18.310703	#	HT
3534	1022	5	0.4238	7.02882	11.7546	17.633503	#	HT
3535	1023	4	-0.8476	10.577	7.69361	1.460404	#	OT
3536	1023	5	0.4238	11.0093	7.67953	2.362103	#	HT
3537	1023	5	0.4238	11.0651	8.33346	0.866802	#	HT
3538	1024	4	-0.8476	7.30937	10.0469	71.226105	#	OT
3539	1024	5	0.4238	7.32014	9.61995	72.130104	#	HT
3540	1024	5	0.4238	7.7996	10.9178	71.2631	#	HT
3541	1025	4	-0.8476	11.1773	7.76632	52.135498	#	OT
3542	1025	5	0.4238	10.4076	7.28392	52.553604	#	HT
3543	1025	5	0.4238	11.4885	8.49234	52.748703	#	HT
3544	1026	4	-0.8476	13.0106	20.815399	76.659104	#	OT
3545	1026	5	0.4238	12.3189	21.3312	76.154099	#	HT
3546	1026	5	0.4238	13.167	19.9368	76.2081	#	HT
3547	1027	4	-0.8476	14.7319	22.5506	22.288902	#	OT
3548	1027	5	0.4238	15.4297	23.1656	22.655998	#	HT
3549	1027	5	0.4238	13.8483	22.7617	22.706703	#	HT
3550	1028	4	-0.8476	5.39755	19.197701	11.841004	#	OT
3551	1028	5	0.4238	4.94795	19.621	12.627602	#	HT
3552	1028	5	0.4238	4.71225	18.964199	11.151203	#	HT
3553	1029	4	-0.8476	21.428499	5.92955	21.585003	#	OT
3554	1029	5	0.4238	22.052	5.671	20.847103	#	HT
3555	1029	5	0.4238	21.345501	5.17174	22.232102	#	HT
3556	1030	4	-0.8476	4.05728	17.622101	26.582199	#	OT
3557	1030	5	0.4238	4.91579	17.286301	26.969704	#	HT
3558	1030	5	0.4238	3.99767	18.6119	26.711899	#	HT
3559	1031	4	-0.8476	4.19506	9.09362	67.815102	#	OT
3560	1031	5	0.4238	3.20703	9.18375	67.940102	#	HT
3561	1031	5	0.4238	4.54982	8.40535	68.448105	#	HT
3562	1032	4	-0.8476	16.426001	6.15777	44.814301	#	OT
3563	1032	5	0.4238	16.1875	5.99156	45.771103	#	HT
3564	1032	5	0.4238	17.0368	5.43437	44.4925	#	HT
3565	1033	4	-0.8476	13.6439	18.997601	15.926701	#	OT
3566	1033	5	0.4238	14.0348	18.1161	15.661904	#	HT
3567	1033	5	0.4238	13.9242	19.697399	15.2696	#	HT
3568	1034	4	-0.8476	21.534401	25.879101	10.207001	#	OT
3569	1034	5	0.4238	22.415899	25.6679	9.784603	#	HT
3570	1034	5	0.4238	21.6569	26.5963	10.893002	#	HT
3571	1035	4	-0.8476	1.34256	27.5763	13.421303	#	OT
3572	1035	5	0.4238	0.877036	28.0683	12.6856	#	HT
3573	1035	5	0.4238	2.3012	27.8587	13.4566	#	HT
3574	1036	4	-0.8476	21.864901	18.2848	82.454102	#	OT
3575	1036	5	0.4238	22.0916	19.257601	82.408104	#	HT
3576	1036	5	0.4238	22.683201	17.763	82.695099	#	HT
3577	1037	4	-0.8476	4.54545	2.64143	5.1497	#	OT
3578	1037	5	0.4238	3.75522	3.18148	4.860104	#	HT
3579	1037	5	0.4238	4.51542	1.74413	4.709301	#	HT
3580	1038	4	-0.8476	21.6565	16.598499	30.968804	#	OT
3581	1038	5	0.4238	21.377899	15.6629	31.185402	#	HT
3582	1038	5	0.4238	22.6357	16.616199	30.766304	#	HT
3583	1039	4	-0.8476	14.779	20.9121	14.416104	#	OT
3584	1039	5	0.4238	14.9781	21.8785	14.579003	#	HT
3585	1039	5	0.4238	14.8568	20.7159	13.438603	#	HT
3586	1040	4	-0.8476	15.0736	3.07757	83.5131	#	OT
3587	1040	5	0.4238	14.5006	2.41591	83.030106	#	HT
3588	1040	5	0.4238	14.5398	3.90009	83.710098	#	HT
3589	1041	4	-0.8476	20.0793	12.3689	11.119003	#	OT
3590	1041	5	0.4238	19.3953	12.0446	10.465603	#	HT
3591	1041	5	0.4238	20.9937	12.2444	10.733704	#	HT
3592	1042	4	-0.8476	15.4337	26.6224	25.7985	#	OT
3593	1042	5	0.4238	16.1894	25.9809	25.9301	#	HT
3594	1042	5	0.4238	15.0651	26.5182	24.874703	#	HT
3595	1043	4	-0.8476	20.441601	22.6329	60.628105	#	OT
3596	1043	5	0.4238	20.497299	23.530399	61.066101	#	HT
3597	1043	5	0.4238	19.7591	22.66	59.898102	#	HT
3598	1045	4	-0.8476	22.995199	15.2319	49.704201	#	OT
3599	1045	5	0.4238	23.041201	14.2906	49.369904	#	HT
3600	1045	5	0.4238	23.0858	15.2367	50.700104	#	HT
3601	1046	4	-0.8476	9.45551	26.656401	13.7551	#	OT
3602	1046	5	0.4238	9.98371	26.320101	12.975403	#	HT
3603	1046	5	0.4238	8.72976	26.0037	13.972401	#	HT
3604	1047	4	-0.8476	2.33495	15.5673	32.003105	#	OT
3605	1047	5	0.4238	1.58657	14.9153	32.125099	#	HT
3606	1047	5	0.4238	3.02035	15.1768	31.388504	#	HT
3607	1048	4	-0.8476	14.9914	7.61191	56.306198	#	OT
3608	1048	5	0.4238	14.1328	7.32368	55.882401	#	HT
3609	1048	5	0.4238	15.1367	8.58646	56.135498	#	HT
3610	1049	4	-0.8476	21.436501	19.0485	36.837898	#	OT
3611	1049	5	0.4238	21.405899	20.0429	36.736099	#	HT
3612	1049	5	0.4238	20.517599	18.7048	37.031403	#	HT
3613	1050	4	-0.8476	8.47965	6.96743	23.616005	#	OT
3614	1050	5	0.4238	8.05969	7.87496	23.612503	#	HT
3615	1050	5	0.4238	9.37093	7.01431	24.067002	#	HT
3616	1051	4	-0.8476	19.919901	20.250601	15.5928	#	OT
3617	1051	5	0.4238	20.1495	20.191299	14.621304	#	HT
3618	1051	5	0.4238	19.85	19.329399	15.975601	#	HT
3619	1052	4	-0.8476	1.42033	10.8346	22.222504	#	OT
3620	1052	5	0.4238	0.701282	11.5292	22.201302	#	HT
3621	1052	5	0.4238	2.06123	10.9952	21.471901	#	HT
3622	1053	4	-0.8476	13.5696	7.2686	26.532799	#	OT
3623	1053	5	0.4238	13.3257	7.4333	27.488503	#	HT
3624	1053	5	0.4238	13.2144	8.01146	25.965302	#	HT
3625	1054	4	-0.8476	8.52543	20.9049	3.263302	#	OT
3626	1054	5	0.4238	8.53103	20.605	2.309403	#	HT
3627	1054	5	0.4238	9.43542	21.235001	3.514301	#	HT
3628	1055	4	-0.8476	13.4157	9.03545	29.017601	#	OT
3629	1055	5	0.4238	13.3849	9.32477	29.974404	#	HT
3630	1055	5	0.4238	14.2087	8.44347	28.873802	#	HT
3631	1056	4	-0.8476	12.8913	19.504	63.770104	#	OT
3632	1056	5	0.4238	13.7259	19.486099	63.219101	#	HT
3633	1056	5	0.4238	12.1244	19.8048	63.203102	#	HT
3634	1057	4	-0.8476	16.3034	8.317	37.758805	#	OT
3635	1057	5	0.4238	15.8535	7.44492	37.5662	#	HT
3636	1057	5	0.4238	15.6249	8.97886	38.0775	#	HT
3637	1058	4	-0.8476	24.010401	16.7176	63.077103	#	OT
3638	1058	5	0.4238	24.1462	16.476999	64.038101	#	HT
3639	1058	5	0.4238	24.730801	16.2994	62.524101	#	HT
3640	1059	4	-0.8476	2.20186	25.501101	15.510201	#	OT
3641	1059	5	0.4238	2.78513	24.8095	15.084103	#	HT
3642	1059	5	0.4238	2.58324	25.757601	16.3983	#	HT
3643	1060	4	-0.8476	21.411301	4.78938	56.420304	#	OT
3644	1060	5	0.4238	20.8682	3.99896	56.137001	#	HT
3645	1060	5	0.4238	22.3398	4.70257	56.059204	#	HT
3646	1061	4	-0.8476	1.45435	7.04369	62.557099	#	OT
3647	1061	5	0.4238	1.87411	6.1389	62.629105	#	HT
3648	1061	5	0.4238	2.01338	7.71051	63.050102	#	HT
3649	1062	4	-0.8476	7.51571	6.50315	71.710098	#	OT
3650	1062	5	0.4238	7.21931	5.74287	72.288101	#	HT
3651	1062	5	0.4238	8.22818	6.18737	71.0831	#	HT
3652	1063	4	-0.8476	21.5249	13.8751	23.029404	#	OT
3653	1063	5	0.4238	21.0278	13.3471	23.718003	#	HT
3654	1063	5	0.4238	22.2031	14.4557	23.480004	#	HT
3655	1064	4	-0.8476	11.6751	6.29382	42.659104	#	OT
3656	1064	5	0.4238	12.5968	5.93073	42.795403	#	HT
3657	1064	5	0.4238	11.6102	7.20211	43.072403	#	HT
3658	1065	4	-0.8476	18.4027	0.928035	82.987099	#	OT
3659	1065	5	0.4238	18.607	1.88211	82.768105	#	HT
3660	1065	5	0.4238	17.8675	0.887008	83.831101	#	HT
3661	1066	4	-0.8476	13.1059	11.6209	55.627403	#	OT
3662	1066	5	0.4238	12.9851	11.8795	56.5858	#	HT
3663	1066	5	0.4238	12.2438	11.2647	55.267105	#	HT
3664	1067	4	-0.8476	3.15294	21.027	30.305802	#	OT
3665	1067	5	0.4238	2.91241	21.952801	30.597504	#	HT
3666	1067	5	0.4238	2.31871	20.5137	30.1045	#	HT
3667	1068	4	-0.8476	18.798401	12.8461	15.8904	#	OT
3668	1068	5	0.4238	19.583401	12.5914	15.325703	#	HT
3669	1068	5	0.4238	18.042	13.1301	15.301102	#	HT
3670	1069	4	-0.8476	9.27019	6.81882	32.9786	#	OT
3671	1069	5	0.4238	10.1879	6.84183	33.375199	#	HT
3672	1069	5	0.4238	9.3181	7.07288	32.012604	#	HT
3673	1070	4	-0.8476	20.2703	7.55905	12.337101	#	OT
3674	1070	5	0.4238	20.6982	7.29848	11.471703	#	HT
3675	1070	5	0.4238	20.9265	7.44063	13.082401	#	HT
3676	1071	4	-0.8476	15.7406	26.269699	30.677902	#	OT
3677	1071	5	0.4238	16.589199	25.92	30.280998	#	HT
3678	1071	5	0.4238	15.9449	27.054199	31.263504	#	HT
3679	1072	4	-0.8476	24.049601	27.4692	1.535702	#	OT
3680	1072	5	0.4238	23.374001	28.1199	1.882302	#	HT
3681	1072	5	0.4238	23.5833	26.6486	1.205502	#	HT
3682	1073	4	-0.8476	15.3691	22.4321	84.880104	#	OT
3683	1073	5	0.4238	15.6473	23.2304	85.4151	#	HT
3684	1073	5	0.4238	14.8464	21.808001	85.461106	#	HT
3685	1074	4	-0.8476	8.72008	23.734699	25.413002	#	OT
3686	1074	5	0.4238	7.80677	23.356899	25.565003	#	HT
3687	1074	5	0.4238	9.29078	23.560101	26.215401	#	HT
3688	1075	4	-0.8476	24.930201	6.9187	74.9581	#	OT
3689	1075	5	0.4238	25.376801	7.64797	75.477104	#	HT
3690	1075	5	0.4238	24.878	7.17901	73.994103	#	HT
3691	1076	4	-0.8476	5.42818	15.2035	67.2481	#	OT
3692	1076	5	0.4238	6.1495	15.4413	67.898102	#	HT
3693	1076	5	0.4238	5.83823	14.9693	66.366104	#	HT
3694	1077	4	-0.8476	5.84125	5.06667	5.254601	#	OT
3695	1077	5	0.4238	5.58161	4.10111	5.238102	#	HT
3696	1077	5	0.4238	6.51768	5.21766	5.975502	#	HT
3697	1078	4	-0.8476	8.92045	0.947881	1.798302	#	OT
3698	1078	5	0.4238	8.4802	0.223699	2.329102	#	HT
3699	1078	5	0.4238	9.64073	0.552502	1.228302	#	HT
3700	1079	4	-0.8476	9.41354	13.0778	15.689202	#	OT
3701	1079	5	0.4238	9.08966	13.7294	16.375103	#	HT
3702	1079	5	0.4238	9.76357	13.5756	14.895603	#	HT
3703	1080	4	-0.8476	22.0452	7.99226	33.942604	#	OT
3704	1080	5	0.4238	22.1998	7.00434	33.932205	#	HT
3705	1080	5	0.4238	22.5231	8.39622	34.722603	#	HT
3706	1081	4	-0.8476	7.17383	14.8226	21.704804	#	OT
3707	1081	5	0.4238	7.79781	14.4878	22.410805	#	HT
3708	1081	5	0.4238	6.94373	14.0752	21.081501	#	HT
3709	1082	4	-0.8476	2.66825	4.73541	62.674103	#	OT
3710	1082	5	0.4238	2.37874	4.35597	63.553101	#	HT
3711	1082	5	0.4238	3.66554	4.80612	62.654099	#	HT
3712	1083	4	-0.8476	24.891199	17.1154	9.587803	#	OT
3713	1083	5	0.4238	25.144199	16.1635	9.414803	#	HT
3714	1083	5	0.4238	25.191601	17.6845	8.8223	#	HT
3715	1084	4	-0.8476	18.009501	22.398399	36.657303	#	OT
3716	1084	5	0.4238	17.663099	22.1546	37.563202	#	HT
3717	1084	5	0.4238	17.3211	22.176901	35.966599	#	HT
3718	1085	4	-0.8476	0.59887	2.44556	45.694901	#	OT
3719	1085	5	0.4238	1.56132	2.65501	45.522202	#	HT
3720	1085	5	0.4238	0.085581	2.50702	44.838799	#	HT
3721	1086	4	-0.8476	19.356501	4.56732	18.730702	#	OT
3722	1086	5	0.4238	19.0998	3.77101	18.183003	#	HT
3723	1086	5	0.4238	20.030899	5.11163	18.2318	#	HT
3724	1087	4	-0.8476	2.14244	19.700399	4.739701	#	OT
3725	1087	5	0.4238	1.84622	19.4988	5.673302	#	HT
3726	1087	5	0.4238	2.82333	20.4326	4.756802	#	HT
3727	1088	4	-0.8476	13.2327	9.01802	82.940102	#	OT
3728	1088	5	0.4238	13.5332	9.25137	83.865105	#	HT
3729	1088	5	0.4238	13.61	8.12873	82.682099	#	HT
3730	1089	4	-0.8476	7.17997	12.6031	72.932099	#	OT
3731	1089	5	0.4238	6.79813	12.6983	73.851105	#	HT
3732	1089	5	0.4238	8.15876	12.8066	72.954102	#	HT
3733	1090	4	-0.8476	11.6118	25.912901	11.777302	#	OT
3734	1090	5	0.4238	11.0037	25.119101	11.770104	#	HT
3735	1090	5	0.4238	12.3561	25.768499	11.125302	#	HT
3736	1091	4	-0.8476	22.6931	10.0088	77.557099	#	OT
3737	1091	5	0.4238	22.0497	9.26181	77.725105	#	HT
3738	1091	5	0.4238	22.6313	10.2936	76.601105	#	HT
3739	1092	4	-0.8476	6.32899	16.9387	27.8704	#	OT
3740	1092	5	0.4238	5.86046	16.3613	28.539002	#	HT
3741	1092	5	0.4238	6.74063	17.7218	28.336601	#	HT
3742	1093	4	-0.8476	11.5349	20.6168	15.906201	#	OT
3743	1093	5	0.4238	11.3738	20.6292	14.9193	#	HT
3744	1093	5	0.4238	10.9925	21.335501	16.3414	#	HT
3745	1094	4	-0.8476	14.7131	3.98574	75.893105	#	OT
3746	1094	5	0.4238	13.9671	3.93944	76.557099	#	HT
3747	1094	5	0.4238	14.4568	4.59939	75.146103	#	HT
3748	1095	4	-0.8476	19.465799	4.18079	10.961502	#	OT
3749	1095	5	0.4238	19.376699	3.45372	10.280804	#	HT
3750	1095	5	0.4238	19.8244	5.00522	10.523701	#	HT
3751	1096	4	-0.8476	0.348746	0.697197	1.514801	#	OT
3752	1096	5	0.4238	1.27285	1.05443	1.379101	#	HT
3753	1096	5	0.4238	0.24188	29.2936	1.001602	#	HT
3754	1097	4	-0.8476	21.444099	20.134701	20.831501	#	OT
3755	1097	5	0.4238	21.1444	21.0879	20.791401	#	HT
3756	1097	5	0.4238	22.443399	20.099001	20.827801	#	HT
3757	1098	4	-0.8476	17.4701	2.87135	0.973602	#	OT
3758	1098	5	0.4238	18.433201	2.6024	0.979103	#	HT
3759	1098	5	0.4238	16.963499	2.28377	0.342701	#	HT
3760	1099	4	-0.8476	1.69652	16.592199	1.152901	#	OT
3761	1099	5	0.4238	1.32134	17.4494	1.505802	#	HT
3762	1099	5	0.4238	1.09693	15.8347	1.4109	#	HT
3763	1100	4	-0.8476	0.312957	16.3477	12.221104	#	OT
3764	1100	5	0.4238	0.550392	15.7708	11.439503	#	HT
3765	1100	5	0.4238	0.505952	15.8552	13.069702	#	HT
3766	1101	4	-0.8476	4.32502	0.921702	56.267105	#	OT
3767	1101	5	0.4238	5.30691	0.792841	56.405998	#	HT
3768	1101	5	0.4238	4.06789	0.576258	55.364601	#	HT
3769	1102	4	-0.8476	23.956699	1.10005	3.413803	#	OT
3770	1102	5	0.4238	24.7474	0.993694	2.810902	#	HT
3771	1102	5	0.4238	23.7376	2.07119	3.5079	#	HT
3772	1103	4	-0.8476	22.7876	27.4004	53.4142	#	OT
3773	1103	5	0.4238	22.8717	26.620001	54.033699	#	HT
3774	1103	5	0.4238	22.945	27.0982	52.474098	#	HT
3775	1104	4	-0.8476	2.95335	16.4091	62.593102	#	OT
3776	1104	5	0.4238	3.4685	16.8815	61.878105	#	HT
3777	1104	5	0.4238	2.85263	17.011801	63.385102	#	HT
3778	1105	4	-0.8476	9.55889	4.75338	51.353005	#	OT
3779	1105	5	0.4238	8.84059	4.12767	51.657204	#	HT
3780	1105	5	0.4238	10.0576	5.09986	52.147499	#	HT
3781	1106	4	-0.8476	15.4847	1.25378	33.421303	#	OT
3782	1106	5	0.4238	16.068001	1.52943	34.185402	#	HT
3783	1106	5	0.4238	14.6536	0.824342	33.774506	#	HT
3784	1107	4	-0.8476	10.0796	18.4678	11.627903	#	OT
3785	1107	5	0.4238	10.1972	19.3111	12.152302	#	HT
3786	1107	5	0.4238	10.386	18.614599	10.687401	#	HT
3787	1108	4	-0.8476	6.79067	12.3158	20.519402	#	OT
3788	1108	5	0.4238	7.13697	11.5904	21.114304	#	HT
3789	1108	5	0.4238	6.02598	11.9662	19.978001	#	HT
3790	1109	4	-0.8476	22.7785	8.27623	36.4879	#	OT
3791	1109	5	0.4238	21.882999	8.67525	36.685105	#	HT
3792	1109	5	0.4238	23.4401	9.00755	36.322205	#	HT
3793	1110	4	-0.8476	8.5003	24.8622	78.141098	#	OT
3794	1110	5	0.4238	8.4753	24.366699	79.009102	#	HT
3795	1110	5	0.4238	7.70962	25.4716	78.0821	#	HT
3796	1111	4	-0.8476	14.2601	18.770599	25.228104	#	OT
3797	1111	5	0.4238	14.1491	18.7792	24.234406	#	HT
3798	1111	5	0.4238	14.4039	17.8312	25.539299	#	HT
3799	1112	4	-0.8476	7.4883	28.760401	24.195503	#	OT
3800	1112	5	0.4238	7.94247	29.290501	23.4795	#	HT
3801	1112	5	0.4238	6.52439	29.022301	24.2435	#	HT
3802	1113	4	-0.8476	5.91925	23.376801	7.875103	#	OT
3803	1113	5	0.4238	6.47617	23.115601	7.086701	#	HT
3804	1113	5	0.4238	5.44933	24.2379	7.680702	#	HT
3805	1114	4	-0.8476	21.4517	13.1019	19.074902	#	OT
3806	1114	5	0.4238	21.264	13.667	18.271504	#	HT
3807	1114	5	0.4238	21.6756	12.1719	18.783303	#	HT
3808	1115	4	-0.8476	19.888599	24.034201	6.791802	#	OT
3809	1115	5	0.4238	19.931	23.934601	7.7859	#	HT
3810	1115	5	0.4238	20.3552	24.8762	6.520901	#	HT
3811	1116	4	-0.8476	9.66612	27.388599	9.693802	#	OT
3812	1116	5	0.4238	8.66799	27.3332	9.668102	#	HT
3813	1116	5	0.4238	10.0552	26.4897	9.492001	#	HT
3814	1117	4	-0.8476	2.60275	15.1666	42.644005	#	OT
3815	1117	5	0.4238	2.94051	14.2338	42.518303	#	HT
3816	1117	5	0.4238	1.60281	15.1606	42.652802	#	HT
3817	1118	4	-0.8476	10.2819	23.9335	38.749901	#	OT
3818	1118	5	0.4238	9.73376	23.169001	38.410706	#	HT
3819	1118	5	0.4238	10.4521	24.578199	38.004601	#	HT
3820	1119	4	-0.8476	17.882799	21.362301	4.476803	#	OT
3821	1119	5	0.4238	18.2038	21.0315	3.589302	#	HT
3822	1119	5	0.4238	17.104401	20.8106	4.776501	#	HT
3823	1120	4	-0.8476	24.2024	6.37056	24.570801	#	OT
3824	1120	5	0.4238	23.5163	5.95136	25.165405	#	HT
3825	1120	5	0.4238	25.080099	6.40679	25.048599	#	HT
3826	1121	4	-0.8476	20.0023	19.597601	12.808903	#	OT
3827	1121	5	0.4238	20.192699	18.6171	12.7598	#	HT
3828	1121	5	0.4238	20.589399	20.0839	12.161701	#	HT
3829	1122	4	-0.8476	2.29185	23.880501	64.518105	#	OT
3830	1122	5	0.4238	3.05295	23.779499	65.159104	#	HT
3831	1122	5	0.4238	2.32622	23.145201	63.842102	#	HT
3832	1123	4	-0.8476	25.167601	27.5951	19.996803	#	OT
3833	1123	5	0.4238	0.589581	27.349501	19.706001	#	HT
3834	1123	5	0.4238	24.511499	27.3097	19.298104	#	HT
3835	1124	4	-0.8476	3.65072	26.0284	56.264603	#	OT
3836	1124	5	0.4238	3.24354	26.411699	57.093605	#	HT
3837	1124	5	0.4238	3.10615	26.2981	55.470406	#	HT
3838	1125	4	-0.8476	25.316299	16.443501	59.091103	#	OT
3839	1125	5	0.4238	0.27	16.334499	59.974098	#	HT
3840	1125	5	0.4238	24.381201	16.7666	59.236099	#	HT
3841	1126	4	-0.8476	22.199499	9.18373	66.5131	#	OT
3842	1126	5	0.4238	21.434	8.56132	66.350105	#	HT
3843	1126	5	0.4238	22.7215	8.86942	67.306099	#	HT
3844	1127	4	-0.8476	8.26287	13.2658	33.912903	#	OT
3845	1127	5	0.4238	7.7884	13.5804	33.090698	#	HT
3846	1127	5	0.4238	9.24376	13.4351	33.817002	#	HT
3847	1128	4	-0.8476	22.3759	10.3537	9.728501	#	OT
3848	1128	5	0.4238	22.4226	9.6623	9.007603	#	HT
3849	1128	5	0.4238	22.850901	10.0192	10.542504	#	HT
3850	1129	4	-0.8476	23.8892	15.5587	18.298603	#	OT
3851	1129	5	0.4238	24.8752	15.6318	18.448502	#	HT
3852	1129	5	0.4238	23.7104	14.8895	17.5774	#	HT
3853	1130	4	-0.8476	0.013828	13.5335	66.567101	#	OT
3854	1130	5	0.4238	0.606142	13.1722	65.8461	#	HT
3855	1130	5	0.4238	24.7043	12.9564	66.6511	#	HT
3856	1131	4	-0.8476	3.43055	14.8934	3.208302	#	OT
3857	1131	5	0.4238	2.54986	14.4221	3.255703	#	HT
3858	1131	5	0.4238	3.33518	15.8162	3.581501	#	HT
3859	1132	4	-0.8476	4.82744	19.5996	80.951103	#	OT
3860	1132	5	0.4238	4.81574	20.026699	80.046105	#	HT
3861	1132	5	0.4238	5.52301	18.881399	80.9711	#	HT
3862	1133	4	-0.8476	12.5701	20.4121	28.9935	#	OT
3863	1133	5	0.4238	13.283	19.845301	29.406502	#	HT
3864	1133	5	0.4238	12.8056	20.6017	28.040299	#	HT
3865	1134	4	-0.8476	22.6549	11.9248	51.693405	#	OT
3866	1134	5	0.4238	22.412201	12.8916	51.774201	#	HT
3867	1134	5	0.4238	21.8431	11.363	51.852699	#	HT
3868	1135	4	-0.8476	1.0601	15.2824	48.4898	#	OT
3869	1135	5	0.4238	1.19564	15.0276	47.532402	#	HT
3870	1135	5	0.4238	0.561651	16.148001	48.537102	#	HT
3871	1136	4	-0.8476	16.5019	19.5653	26.5551	#	OT
3872	1136	5	0.4238	15.5639	19.571199	26.208405	#	HT
3873	1136	5	0.4238	17.0455	20.241301	26.057602	#	HT
3874	1137	4	-0.8476	15.5535	28.3743	66.787102	#	OT
3875	1137	5	0.4238	15.9658	27.463301	66.802101	#	HT
3876	1137	5	0.4238	15.6141	28.781799	67.698105	#	HT
3877	1138	4	-0.8476	6.11768	13.665	1.256401	#	OT
3878	1138	5	0.4238	6.94171	14.2081	1.417504	#	HT
3879	1138	5	0.4238	6.23628	12.7541	1.651802	#	HT
3880	1139	4	-0.8476	24.790701	19.045799	68.520104	#	OT
3881	1139	5	0.4238	24.0735	19.623501	68.910103	#	HT
3882	1139	5	0.4238	24.470501	18.0994	68.478104	#	HT
3883	1140	4	-0.8476	19.4279	1.97604	20.474903	#	OT
3884	1140	5	0.4238	18.7271	2.47457	20.985104	#	HT
3885	1140	5	0.4238	19.062901	1.70642	19.583801	#	HT
3886	1141	4	-0.8476	0.050873	3.55562	81.751099	#	OT
3887	1141	5	0.4238	24.649	3.97393	81.669106	#	HT
3888	1141	5	0.4238	25.4533	2.5854	81.972099	#	HT
3889	1142	4	-0.8476	22.094101	15.2411	39.454498	#	OT
3890	1142	5	0.4238	22.1947	14.2782	39.705002	#	HT
3891	1142	5	0.4238	21.5849	15.311	38.596703	#	HT
3892	1143	4	-0.8476	4.52549	27.5221	7.836102	#	OT
3893	1143	5	0.4238	4.76053	26.9611	8.629803	#	HT
3894	1143	5	0.4238	3.75164	28.1133	8.063103	#	HT
3895	1144	4	-0.8476	0.510577	21.7201	24.995499	#	OT
3896	1144	5	0.4238	1.4451	22.0746	24.964905	#	HT
3897	1144	5	0.4238	25.4921	22.0872	24.224999	#	HT
3898	1145	4	-0.8476	13.9753	17.990299	65.898102	#	OT
3899	1145	5	0.4238	14.8869	17.636299	65.689102	#	HT
3900	1145	5	0.4238	13.5664	18.369101	65.0681	#	HT
3901	1146	4	-0.8476	17.606701	0.383736	60.294106	#	OT
3902	1146	5	0.4238	17.375099	29.215401	61.047104	#	HT
3903	1146	5	0.4238	16.800699	0.525878	59.719101	#	HT
3904	1147	4	-0.8476	5.30665	15.7052	16.507801	#	OT
3905	1147	5	0.4238	6.09071	16.0121	15.968201	#	HT
3906	1147	5	0.4238	4.70698	15.1455	15.935803	#	HT
3907	1148	4	-0.8476	19.980301	21.017099	65.389099	#	OT
3908	1148	5	0.4238	19.173599	20.5336	65.050102	#	HT
3909	1148	5	0.4238	20.087299	21.877701	64.891098	#	HT
3910	1149	4	-0.8476	12.7076	18.9251	39.456703	#	OT
3911	1149	5	0.4238	13.145	19.0828	38.571404	#	HT
3912	1149	5	0.4238	13.3017	19.262501	40.186905	#	HT
3913	1150	4	-0.8476	19.7614	28.5716	6.730702	#	OT
3914	1150	5	0.4238	18.9191	28.740601	6.219002	#	HT
3915	1150	5	0.4238	20.1957	29.443899	6.955403	#	HT
3916	1151	4	-0.8476	17.688499	20.2822	1.900803	#	OT
3917	1151	5	0.4238	17.219999	19.399799	1.945004	#	HT
3918	1151	5	0.4238	17.041201	20.989401	1.616802	#	HT
3919	1152	4	-0.8476	9.0404	19.4056	41.570198	#	OT
3920	1152	5	0.4238	8.36077	18.684799	41.706101	#	HT
3921	1152	5	0.4238	9.12774	19.601601	40.593498	#	HT
3922	1153	4	-0.8476	14.8689	24.412201	77.407105	#	OT
3923	1153	5	0.4238	14.8903	24.3223	76.412102	#	HT
3924	1153	5	0.4238	14.7106	23.5149	77.820099	#	HT
3925	1154	4	-0.8476	13.4981	27.414499	5.883702	#	OT
3926	1154	5	0.4238	12.7642	27.5634	5.220902	#	HT
3927	1154	5	0.4238	13.1187	27.4244	6.808903	#	HT
3928	1155	4	-0.8476	14.9391	22.355801	19.583901	#	OT
3929	1155	5	0.4238	14.7058	22.289801	20.5541	#	HT
3930	1155	5	0.4238	15.31	23.2644	19.391403	#	HT
3931	1156	4	-0.8476	0.405249	14.8774	38.366501	#	OT
3932	1156	5	0.4238	25.498501	15.2899	39.180306	#	HT
3933	1156	5	0.4238	0.223515	13.894	38.363999	#	HT
3934	1157	4	-0.8476	7.32252	17.532	34.353302	#	OT
3935	1157	5	0.4238	6.65669	18.1509	34.770004	#	HT
3936	1157	5	0.4238	8.07905	18.063801	33.972603	#	HT
3937	1158	4	-0.8476	12.1308	6.3411	7.590801	#	OT
3938	1158	5	0.4238	11.4465	5.87768	8.1539	#	HT
3939	1158	5	0.4238	11.8425	7.28414	7.424702	#	HT
3940	1160	4	-0.8476	21.039499	16.999701	19.040604	#	OT
3941	1160	5	0.4238	21.267	17.942301	19.285202	#	HT
3942	1160	5	0.4238	21.743401	16.634199	18.431603	#	HT
3943	1161	4	-0.8476	2.12776	5.05795	71.857102	#	OT
3944	1161	5	0.4238	2.18066	5.1944	70.867104	#	HT
3945	1161	5	0.4238	2.98089	5.36136	72.281105	#	HT
3946	1162	4	-0.8476	0.304098	22.496799	7.069603	#	OT
3947	1162	5	0.4238	0.482376	21.527	7.235901	#	HT
3948	1162	5	0.4238	25.063299	22.5903	6.407501	#	HT
3949	1164	4	-0.8476	22.4023	22.1332	56.482399	#	OT
3950	1164	5	0.4238	21.477501	21.9823	56.133103	#	HT
3951	1164	5	0.4238	22.355	22.413	57.4413	#	HT
3952	1165	4	-0.8476	16.257299	10.1016	41.284004	#	OT
3953	1165	5	0.4238	17.194799	10.4495	41.296204	#	HT
3954	1165	5	0.4238	15.8137	10.3689	40.428604	#	HT
3955	1166	4	-0.8476	9.10323	7.10331	83.891098	#	OT
3956	1166	5	0.4238	9.65939	6.87571	83.091103	#	HT
3957	1166	5	0.4238	8.17694	6.74833	83.764099	#	HT
3958	1167	4	-0.8476	0.939613	14.8329	14.730004	#	OT
3959	1167	5	0.4238	1.87608	14.62	15.008702	#	HT
3960	1167	5	0.4238	0.298059	14.4361	15.386402	#	HT
3961	1168	4	-0.8476	13.3702	17.8183	44.755303	#	OT
3962	1168	5	0.4238	13.3189	18.027901	45.731705	#	HT
3963	1168	5	0.4238	13.6049	16.853901	44.633202	#	HT
3964	1169	4	-0.8476	2.17948	23.841	68.584099	#	OT
3965	1169	5	0.4238	1.86367	24.5443	67.947106	#	HT
3966	1169	5	0.4238	1.4094	23.5212	69.136101	#	HT
3967	1170	4	-0.8476	13.4958	29.4014	76.086106	#	OT
3968	1170	5	0.4238	12.718	28.8001	75.903099	#	HT
3969	1170	5	0.4238	13.9477	0.184968	75.225105	#	HT
3970	1172	4	-0.8476	4.3729	10.3634	75.380104	#	OT
3971	1172	5	0.4238	3.62991	10.9616	75.079102	#	HT
3972	1172	5	0.4238	5.23473	10.8704	75.367104	#	HT
3973	1173	4	-0.8476	4.44003	1.08926	35.267304	#	OT
3974	1173	5	0.4238	4.27927	0.238253	34.767403	#	HT
3975	1173	5	0.4238	3.68899	1.246	35.908699	#	HT
3976	1174	4	-0.8476	22.496201	20.185101	7.125	#	OT
3977	1174	5	0.4238	22.704201	20.9459	7.739701	#	HT
3978	1174	5	0.4238	22.622101	19.320101	7.610703	#	HT
3979	1175	4	-0.8476	9.81009	3.89707	66.983101	#	OT
3980	1175	5	0.4238	10.4883	4.28628	67.607102	#	HT
3981	1175	5	0.4238	9.43202	3.0614	67.382103	#	HT
3982	1176	4	-0.8476	13.9622	18.308901	84.150101	#	OT
3983	1176	5	0.4238	14.4256	17.8162	83.414101	#	HT
3984	1176	5	0.4238	13.0413	17.938299	84.271103	#	HT
3985	1177	4	-0.8476	0.418707	15.9548	22.372299	#	OT
3986	1177	5	0.4238	0.768981	15.8312	21.443802	#	HT
3987	1177	5	0.4238	25.070601	16.4793	22.3405	#	HT
3988	1178	4	-0.8476	6.96503	16.4937	83.1801	#	OT
3989	1178	5	0.4238	6.05801	16.9142	83.202103	#	HT
3990	1178	5	0.4238	7.25777	16.2836	84.113098	#	HT
3991	1179	4	-0.8476	3.23195	29.087099	54.072701	#	OT
3992	1179	5	0.4238	3.64111	28.6483	53.272705	#	HT
3993	1179	5	0.4238	2.31069	28.7257	54.2164	#	HT
3994	1180	4	-0.8476	13.878	3.05596	7.972302	#	OT
3995	1180	5	0.4238	14.3126	3.35863	7.124001	#	HT
3996	1180	5	0.4238	13.5571	2.11495	7.865002	#	HT
3997	1181	4	-0.8476	11.9846	9.25487	79.1521	#	OT
3998	1181	5	0.4238	11.975	10.1943	78.809105	#	HT
3999	1181	5	0.4238	12.9151	9.00838	79.423104	#	HT
4000	1182	4	-0.8476	20.588301	12.7844	7.993103	#	OT
4001	1182	5	0.4238	20.913601	11.8909	7.683403	#	HT
4002	1182	5	0.4238	21.3589	13.3161	8.344601	#	HT
4003	1183	4	-0.8476	23.7668	11.8011	81.797104	#	OT
4004	1183	5	0.4238	23.309799	11.9823	80.926102	#	HT
4005	1183	5	0.4238	23.2397	12.2106	82.5411	#	HT
4006	1184	4	-0.8476	23.367599	12.5906	26.208702	#	OT
4007	1184	5	0.4238	22.394699	12.7268	26.022103	#	HT
4008	1184	5	0.4238	23.4741	12.0176	27.021301	#	HT
4009	1185	4	-0.8476	15.1419	11.3814	13.706101	#	OT
4010	1185	5	0.4238	14.3846	11.4118	14.358502	#	HT
4011	1185	5	0.4238	15.6401	10.521	13.813603	#	HT
4012	1186	4	-0.8476	0.17097	19.820299	27.008499	#	OT
4013	1186	5	0.4238	0.354742	20.334299	26.1707	#	HT
4014	1186	5	0.4238	25.393801	20.4512	27.732102	#	HT
4015	1187	4	-0.8476	15.219	27.213699	17.204804	#	OT
4016	1187	5	0.4238	16.156	27.562799	17.201203	#	HT
4017	1187	5	0.4238	14.6021	27.9109	16.839501	#	HT
4018	1188	4	-0.8476	12.6335	7.10926	55.400803	#	OT
4019	1188	5	0.4238	12.0501	6.75394	54.670403	#	HT
4020	1188	5	0.4238	12.1293	7.10008	56.264305	#	HT
4021	1189	4	-0.8476	5.40112	5.33964	85.764099	#	OT
4022	1189	5	0.4238	4.44229	5.10231	85.920105	#	HT
4023	1189	5	0.4238	5.54729	6.30257	85.991104	#	HT
4024	1190	4	-0.8476	21.599001	16.2167	44.534401	#	OT
4025	1190	5	0.4238	21.778799	15.6386	43.738503	#	HT
4026	1190	5	0.4238	20.779699	16.7658	44.369202	#	HT
4027	1191	4	-0.8476	5.99978	12.6633	75.378105	#	OT
4028	1191	5	0.4238	5.67007	13.3799	75.992104	#	HT
4029	1191	5	0.4238	6.56578	12.0182	75.891098	#	HT
4030	1192	4	-0.8476	20.7994	5.02788	78.932099	#	OT
4031	1192	5	0.4238	21.316999	4.83432	78.099098	#	HT
4032	1192	5	0.4238	19.873199	4.66173	78.842102	#	HT
4033	1193	4	-0.8476	16.9018	18.067699	15.668404	#	OT
4034	1193	5	0.4238	17.052	18.959	15.240601	#	HT
4035	1193	5	0.4238	17.783701	17.6511	15.889103	#	HT
4036	1194	4	-0.8476	7.07314	18.657801	72.259102	#	OT
4037	1194	5	0.4238	7.61393	19.3251	71.746102	#	HT
4038	1194	5	0.4238	6.35721	18.285299	71.668099	#	HT
4039	1195	4	-0.8476	18.3216	6.03712	73.403099	#	OT
4040	1195	5	0.4238	17.5718	6.69198	73.4981	#	HT
4041	1195	5	0.4238	18.672501	5.79833	74.308106	#	HT
4042	1196	4	-0.8476	22.719299	18.021099	58.872101	#	OT
4043	1196	5	0.4238	22.919701	18.851801	59.391098	#	HT
4044	1196	5	0.4238	22.245701	17.3661	59.461106	#	HT
4045	1197	4	-0.8476	14.5371	23.394699	52.422302	#	OT
4046	1197	5	0.4238	14.7412	24.086201	53.115303	#	HT
4047	1197	5	0.4238	15.3559	23.2187	51.875801	#	HT
4048	1198	4	-0.8476	8.76591	24.0753	68.702103	#	OT
4049	1198	5	0.4238	9.63924	24.548599	68.817101	#	HT
4050	1198	5	0.4238	8.16308	24.2967	69.468102	#	HT
4051	1199	4	-0.8476	9.03758	23.004299	48.367203	#	OT
4052	1199	5	0.4238	8.55272	23.7766	47.956703	#	HT
4053	1199	5	0.4238	8.80531	22.942801	49.337898	#	HT
4054	1200	4	-0.8476	1.14236	24.2034	21.262703	#	OT
4055	1200	5	0.4238	0.504188	23.680901	21.828102	#	HT
4056	1200	5	0.4238	0.63185	24.725201	20.579201	#	HT
4057	1201	4	-0.8476	14.0261	28.4811	81.757103	#	OT
4058	1201	5	0.4238	14.9396	28.3013	81.392105	#	HT
4059	1201	5	0.4238	13.3444	28.013399	81.1941	#	HT
4060	1202	4	-0.8476	7.5626	4.47243	79.141098	#	OT
4061	1202	5	0.4238	7.32298	3.94542	79.956101	#	HT
4062	1202	5	0.4238	6.89006	5.19983	79.005104	#	HT
4063	1203	4	-0.8476	2.13142	19.268299	60.604103	#	OT
4064	1203	5	0.4238	2.72041	18.477699	60.771103	#	HT
4065	1203	5	0.4238	1.33111	19.220301	61.201103	#	HT
4066	1204	4	-0.8476	16.127501	16.3274	65.250099	#	OT
4067	1204	5	0.4238	16.2749	15.3955	65.581101	#	HT
4068	1204	5	0.4238	16.480499	16.4095	64.3181	#	HT
4069	1205	4	-0.8476	19.651699	21.9786	56.309105	#	OT
4070	1205	5	0.4238	19.349199	22.1101	57.253105	#	HT
4071	1205	5	0.4238	19.1278	21.2363	55.891403	#	HT
4072	1206	4	-0.8476	19.118099	6.93967	30.513405	#	OT
4073	1206	5	0.4238	18.4963	6.20752	30.791306	#	HT
4074	1206	5	0.4238	18.752399	7.82011	30.815201	#	HT
4075	1207	4	-0.8476	23.6385	29.406401	6.280602	#	OT
4076	1207	5	0.4238	23.9683	0.270659	5.389603	#	HT
4077	1207	5	0.4238	22.725599	0.33088	6.447403	#	HT
4078	1208	4	-0.8476	2.54954	7.00115	10.205303	#	OT
4079	1208	5	0.4238	3.31104	7.0029	9.557102	#	HT
4080	1208	5	0.4238	1.87649	7.68787	9.930603	#	HT
4081	1209	4	-0.8476	10.8997	19.677799	71.597099	#	OT
4082	1209	5	0.4238	11.739	20.0093	72.028099	#	HT
4083	1209	5	0.4238	10.7199	20.2059	70.767105	#	HT
4084	1210	4	-0.8476	7.78499	7.58538	1.173203	#	OT
4085	1210	5	0.4238	7.53553	6.65088	1.427101	#	HT
4086	1210	5	0.4238	8.66505	7.8194	1.586403	#	HT
4087	1211	4	-0.8476	12.7109	26.1008	18.002003	#	OT
4088	1211	5	0.4238	13.5146	26.584499	17.655602	#	HT
4089	1211	5	0.4238	12.1827	25.7391	17.233803	#	HT
4090	1212	4	-0.8476	23.037001	14.1012	46.443299	#	OT
4091	1212	5	0.4238	22.981001	13.6635	47.340599	#	HT
4092	1212	5	0.4238	22.560801	13.5385	45.767601	#	HT
4093	1213	4	-0.8476	3.0942	25.7397	70.686104	#	OT
4094	1213	5	0.4238	2.419	25.3911	71.336106	#	HT
4095	1213	5	0.4238	3.08847	25.1719	69.863098	#	HT
4096	1214	4	-0.8476	25.3559	19.6637	65.5411	#	OT
4097	1214	5	0.4238	24.8445	18.996901	66.0831	#	HT
4098	1214	5	0.4238	0.65239	19.970699	66.058106	#	HT
4099	1215	4	-0.8476	6.32418	17.6374	3.755501	#	OT
4100	1215	5	0.4238	5.36682	17.4307	3.957302	#	HT
4101	1215	5	0.4238	6.40748	17.9359	2.804703	#	HT
4102	1216	4	-0.8476	11.3042	27.6754	75.470101	#	OT
4103	1216	5	0.4238	11.5438	26.9734	76.140099	#	HT
4104	1216	5	0.4238	10.3169	27.832899	75.490105	#	HT
4105	1217	4	-0.8476	8.68054	17.157499	21.708103	#	OT
4106	1217	5	0.4238	9.39444	16.9597	21.036404	#	HT
4107	1217	5	0.4238	7.98517	16.439501	21.676701	#	HT
4108	1218	4	-0.8476	12.7551	26.000999	77.396103	#	OT
4109	1218	5	0.4238	13.6846	25.636299	77.341103	#	HT
4110	1218	5	0.4238	12.5132	26.153601	78.354103	#	HT
4111	1219	4	-0.8476	15.0467	0.434895	1.209503	#	OT
4112	1219	5	0.4238	14.7212	1.05269	1.925301	#	HT
4113	1219	5	0.4238	14.4343	29.0949	1.1455	#	HT
4114	1220	4	-0.8476	21.1175	1.37222	16.9557	#	OT
4115	1220	5	0.4238	20.160299	1.47292	17.227101	#	HT
4116	1220	5	0.4238	21.269699	0.447298	16.607304	#	HT
4117	1221	4	-0.8476	4.77221	3.03684	24.917603	#	OT
4118	1221	5	0.4238	4.58592	2.05561	24.867806	#	HT
4119	1221	5	0.4238	4.16911	3.45662	25.595902	#	HT
4120	1223	4	-0.8476	5.2022	27.0812	34.170899	#	OT
4121	1223	5	0.4238	5.70718	27.2323	33.321099	#	HT
4122	1223	5	0.4238	5.81059	27.2283	34.950798	#	HT
4123	1224	4	-0.8476	15.1745	27.811399	28.280205	#	OT
4124	1224	5	0.4238	15.2131	27.2623	29.115105	#	HT
4125	1224	5	0.4238	15.112	27.2068	27.486199	#	HT
4126	1225	4	-0.8476	25.1817	12.158	51.4552	#	OT
4127	1225	5	0.4238	24.226101	11.8776	51.545899	#	HT
4128	1225	5	0.4238	0.1755	11.925	52.291405	#	HT
4129	1226	4	-0.8476	4.91705	19.8067	24.315499	#	OT
4130	1226	5	0.4238	4.53811	20.436001	24.994003	#	HT
4131	1226	5	0.4238	4.43638	19.9245	23.446602	#	HT
4132	1227	4	-0.8476	4.37862	26.816401	72.843102	#	OT
4133	1227	5	0.4238	5.15695	26.2764	73.164101	#	HT
4134	1227	5	0.4238	3.79991	26.2509	72.256104	#	HT
4135	1228	4	-0.8476	2.07128	8.41952	35.525902	#	OT
4136	1228	5	0.4238	2.61275	9.24915	35.389801	#	HT
4137	1228	5	0.4238	2.3372	7.73314	34.848999	#	HT
4138	1229	4	-0.8476	23.91	4.16647	84.734101	#	OT
4139	1229	5	0.4238	23.429899	3.97979	83.877098	#	HT
4140	1229	5	0.4238	24.156099	5.13489	84.774101	#	HT
4141	1230	4	-0.8476	6.76082	2.85102	85.562103	#	OT
4142	1230	5	0.4238	7.72261	2.9075	85.830101	#	HT
4143	1230	5	0.4238	6.38164	3.77311	85.4851	#	HT
4144	1231	4	-0.8476	22.695801	19.1761	56.523102	#	OT
4145	1231	5	0.4238	23.2185	20.0275	56.565804	#	HT
4146	1231	5	0.4238	22.719	18.725599	57.415505	#	HT
4147	1232	4	-0.8476	15.1428	1.5995	74.663101	#	OT
4148	1232	5	0.4238	15.1486	2.49094	75.116104	#	HT
4149	1232	5	0.4238	15.943	1.52271	74.0681	#	HT
4150	1233	4	-0.8476	6.14444	28.4144	1.692101	#	OT
4151	1233	5	0.4238	6.37054	27.888599	0.872101	#	HT
4152	1233	5	0.4238	6.91778	28.3927	2.325703	#	HT
4153	1234	4	-0.8476	21.9841	26.618999	41.645302	#	OT
4154	1234	5	0.4238	21.883101	27.412201	42.245804	#	HT
4155	1234	5	0.4238	21.210899	25.9991	41.779099	#	HT
4156	1236	4	-0.8476	8.96469	12.8989	10.395802	#	OT
4157	1236	5	0.4238	9.26888	13.3941	11.209603	#	HT
4158	1236	5	0.4238	8.01334	12.6147	10.514801	#	HT
4159	1237	4	-0.8476	6.47944	3.85026	55.926003	#	OT
4160	1237	5	0.4238	6.26388	3.77457	54.9524	#	HT
4161	1237	5	0.4238	5.99449	4.6336	56.314804	#	HT
4162	1238	4	-0.8476	2.69793	7.2607	13.087803	#	OT
4163	1238	5	0.4238	3.58744	7.50951	13.471104	#	HT
4164	1238	5	0.4238	1.9766	7.75906	13.568802	#	HT
4165	1239	4	-0.8476	20.6905	18.798901	86.669098	#	OT
4166	1239	5	0.4238	20.34	18.183701	85.963104	#	HT
4167	1239	5	0.4238	20.4202	19.738001	86.457108	#	HT
4168	1240	4	-0.8476	12.6698	19.5942	57.695999	#	OT
4169	1240	5	0.4238	11.9241	18.9317	57.767304	#	HT
4170	1240	5	0.4238	12.6659	20.188101	58.500099	#	HT
4171	1241	4	-0.8476	14.9552	1.44645	14.447903	#	OT
4172	1241	5	0.4238	15.4719	2.28385	14.2696	#	HT
4173	1241	5	0.4238	14.8579	0.927611	13.598503	#	HT
4174	1242	4	-0.8476	10.744	9.60376	23.336304	#	OT
4175	1242	5	0.4238	10.9263	9.46709	24.310005	#	HT
4176	1242	5	0.4238	9.79773	9.90261	23.213104	#	HT
4177	1243	4	-0.8476	5.44344	8.52444	16.599602	#	OT
4178	1243	5	0.4238	5.74999	8.24154	17.5084	#	HT
4179	1243	5	0.4238	4.69011	9.17589	16.689701	#	HT
4180	1244	4	-0.8476	0.768357	19.699699	86.560105	#	OT
4181	1244	5	0.4238	1.27973	20.5177	86.823105	#	HT
4182	1244	5	0.4238	25.303101	19.8277	86.776108	#	HT
4183	1245	4	-0.8476	10.8943	28.853901	14.811501	#	OT
4184	1245	5	0.4238	10.3361	28.0243	14.826702	#	HT
4185	1245	5	0.4238	10.3039	0.206836	14.9109	#	HT
4186	1246	4	-0.8476	15.3546	6.83784	28.901703	#	OT
4187	1246	5	0.4238	14.6888	6.1025	29.028198	#	HT
4188	1246	5	0.4238	15.9647	6.87497	29.6931	#	HT
4189	1247	4	-0.8476	25.460199	2.21627	21.809303	#	OT
4190	1247	5	0.4238	24.945299	3.06629	21.698303	#	HT
4191	1247	5	0.4238	0.803467	2.26729	21.278504	#	HT
4192	1248	4	-0.8476	2.83554	5.69717	78.922104	#	OT
4193	1248	5	0.4238	1.93951	5.61189	79.358101	#	HT
4194	1248	5	0.4238	2.71572	5.86387	77.9441	#	HT
4195	1249	4	-0.8476	22.391199	14.4428	14.645001	#	OT
4196	1249	5	0.4238	21.948099	13.5674	14.451702	#	HT
4197	1249	5	0.4238	22.233	15.0717	13.883801	#	HT
4198	1250	4	-0.8476	6.80425	11.3682	2.240902	#	OT
4199	1250	5	0.4238	6.15608	10.6245	2.0774	#	HT
4200	1250	5	0.4238	7.72326	11.0729	1.979801	#	HT
4201	1251	4	-0.8476	7.32892	0.921828	11.0056	#	OT
4202	1251	5	0.4238	7.7455	0.707115	10.1222	#	HT
4203	1251	5	0.4238	6.46159	0.431829	11.093003	#	HT
4204	1252	4	-0.8476	16.5287	5.65138	64.575104	#	OT
4205	1252	5	0.4238	16.1766	6.58357	64.659104	#	HT
4206	1252	5	0.4238	15.9488	5.02766	65.099098	#	HT
4207	1253	4	-0.8476	24.5525	6.22164	29.7053	#	OT
4208	1253	5	0.4238	24.381399	6.76091	30.529801	#	HT
4209	1253	5	0.4238	25.0938	6.76123	29.060402	#	HT
4210	1254	4	-0.8476	16.595301	18.762899	86.421097	#	OT
4211	1254	5	0.4238	15.7129	19.2173	86.299103	#	HT
4212	1254	5	0.4238	16.4473	17.831699	86.754105	#	HT
4213	1255	4	-0.8476	8.5701	9.90658	4.560803	#	OT
4214	1255	5	0.4238	8.82982	10.1916	3.638104	#	HT
4215	1255	5	0.4238	8.24152	10.6992	5.074402	#	HT
4216	1256	4	-0.8476	19.0933	8.25831	27.987801	#	OT
4217	1256	5	0.4238	18.258499	8.02012	27.491402	#	HT
4218	1256	5	0.4238	19.319401	9.21767	27.818703	#	HT
4219	1257	4	-0.8476	10.606	8.62569	49.275101	#	OT
4220	1257	5	0.4238	11.1582	9.44419	49.433899	#	HT
4221	1257	5	0.4238	10.5315	8.10386	50.124901	#	HT
4222	1258	4	-0.8476	0.090638	11.3401	48.596504	#	OT
4223	1258	5	0.4238	1.03443	11.4723	48.293503	#	HT
4224	1258	5	0.4238	0.05627	11.3543	49.595803	#	HT
4225	1259	4	-0.8476	19.139999	24.466499	19.666401	#	OT
4226	1259	5	0.4238	18.195299	24.4856	19.339001	#	HT
4227	1259	5	0.4238	19.3906	25.3701	20.014	#	HT
4228	1260	4	-0.8476	11.5537	2.76942	64.426102	#	OT
4229	1260	5	0.4238	10.6525	3.19401	64.514099	#	HT
4230	1260	5	0.4238	12.1347	3.33809	63.844101	#	HT
4231	1261	4	-0.8476	24.3862	19.9603	34.594902	#	OT
4232	1261	5	0.4238	24.349701	20.542299	35.407204	#	HT
4233	1261	5	0.4238	24.497101	20.5306	33.780899	#	HT
4234	1262	4	-0.8476	11.8118	15.4852	17.266602	#	OT
4235	1262	5	0.4238	12.325	15.5892	18.118504	#	HT
4236	1262	5	0.4238	12.3107	14.8771	16.649101	#	HT
4237	1263	4	-0.8476	20.9904	11.5492	2.572701	#	OT
4238	1263	5	0.4238	20.0676	11.3907	2.221604	#	HT
4239	1263	5	0.4238	21.349701	10.7005	2.960701	#	HT
4240	1264	4	-0.8476	0.539049	15.6952	67.882103	#	OT
4241	1264	5	0.4238	0.405704	14.7584	67.558106	#	HT
4242	1264	5	0.4238	1.42232	16.036301	67.560105	#	HT
4243	1265	4	-0.8476	5.07451	9.36499	65.385102	#	OT
4244	1265	5	0.4238	4.74027	9.56713	66.306099	#	HT
4245	1265	5	0.4238	5.41694	10.2044	64.963104	#	HT
4246	1266	4	-0.8476	3.93211	7.60889	23.272202	#	OT
4247	1266	5	0.4238	4.45783	8.2886	22.760704	#	HT
4248	1266	5	0.4238	4.13447	7.69601	24.247605	#	HT
4249	1267	4	-0.8476	24.7985	17.027201	33.170304	#	OT
4250	1267	5	0.4238	24.777	17.312599	32.212105	#	HT
4251	1267	5	0.4238	25.1562	16.0954	33.232605	#	HT
4252	1268	4	-0.8476	2.84528	3.39925	29.532601	#	OT
4253	1268	5	0.4238	2.2233	3.25829	30.302902	#	HT
4254	1268	5	0.4238	3.47313	4.14835	29.744003	#	HT
4255	1269	4	-0.8476	10.5051	19.601	67.395104	#	OT
4256	1269	5	0.4238	10.2606	20.167	68.182099	#	HT
4257	1269	5	0.4238	11.235	20.0473	66.877098	#	HT
4258	1270	4	-0.8476	8.0471	4.90586	7.094601	#	OT
4259	1270	5	0.4238	8.57751	5.04794	7.930401	#	HT
4260	1270	5	0.4238	8.35695	4.07014	6.641201	#	HT
4261	1271	4	-0.8476	1.86316	26.3468	50.933106	#	OT
4262	1271	5	0.4238	1.00588	26.2293	51.434403	#	HT
4263	1271	5	0.4238	1.67526	26.365101	49.951103	#	HT
4264	1272	4	-0.8476	10.429	28.500799	83.625099	#	OT
4265	1272	5	0.4238	10.2238	28.113701	82.726105	#	HT
4266	1272	5	0.4238	10.3789	0.050432	83.578102	#	HT
4267	1273	4	-0.8476	25.0305	10.4767	4.3083	#	OT
4268	1273	5	0.4238	24.192301	10.0144	4.597603	#	HT
4269	1273	5	0.4238	24.8228	11.4259	4.071701	#	HT
4270	1274	4	-0.8476	18.086201	18.204599	72.516098	#	OT
4271	1274	5	0.4238	18.6485	19.027	72.603104	#	HT
4272	1274	5	0.4238	18.603701	17.411699	72.838104	#	HT
4273	1275	4	-0.8476	6.09428	2.3024	76.145104	#	OT
4274	1275	5	0.4238	5.80754	2.02298	77.061104	#	HT
4275	1275	5	0.4238	5.30379	2.64789	75.639099	#	HT
4276	1276	4	-0.8476	16.242701	22.249701	73.473099	#	OT
4277	1276	5	0.4238	15.6252	22.8081	74.0271	#	HT
4278	1276	5	0.4238	17.190001	22.4667	73.7081	#	HT
4279	1277	4	-0.8476	23.3442	27.055901	39.397705	#	OT
4280	1277	5	0.4238	22.753201	26.931601	40.194702	#	HT
4281	1277	5	0.4238	22.935101	26.603201	38.6054	#	HT
4282	1278	4	-0.8476	9.23492	13.9379	30.634201	#	OT
4283	1278	5	0.4238	10.0876	14.4462	30.513298	#	HT
4284	1278	5	0.4238	8.47931	14.5802	30.762604	#	HT
4285	1279	4	-0.8476	17.2465	7.28919	26.448899	#	OT
4286	1279	5	0.4238	16.59	6.83117	27.048302	#	HT
4287	1279	5	0.4238	16.8545	7.38093	25.533501	#	HT
4288	1280	4	-0.8476	23.9865	12.1494	42.702202	#	OT
4289	1280	5	0.4238	24.5749	11.5558	42.153305	#	HT
4290	1280	5	0.4238	24.3699	13.0728	42.721802	#	HT
4291	1282	4	-0.8476	18.476299	6.43505	21.930802	#	OT
4292	1282	5	0.4238	18.399	5.43804	21.929302	#	HT
4293	1282	5	0.4238	17.721001	6.82706	22.456101	#	HT
4294	1283	4	-0.8476	24.0315	25.1777	30.4142	#	OT
4295	1283	5	0.4238	24.6667	24.5495	29.964806	#	HT
4296	1283	5	0.4238	24.547899	25.8836	30.899002	#	HT
4297	1284	4	-0.8476	22.3333	29.109301	10.151402	#	OT
4298	1284	5	0.4238	22.1283	28.4762	10.897904	#	HT
4299	1284	5	0.4238	23.0613	28.728201	9.581501	#	HT
4300	1285	4	-0.8476	23.5161	2.66815	72.631104	#	OT
4301	1285	5	0.4238	23.5474	2.46487	73.6101	#	HT
4302	1285	5	0.4238	23.6346	1.8223	72.111099	#	HT
4303	1286	4	-0.8476	23.5644	3.92152	62.428101	#	OT
4304	1286	5	0.4238	23.2213	3.09821	61.975105	#	HT
4305	1286	5	0.4238	24.535601	4.03635	62.219101	#	HT
4306	1287	4	-0.8476	5.12256	5.26667	59.827103	#	OT
4307	1287	5	0.4238	4.19579	5.33118	59.4571	#	HT
4308	1287	5	0.4238	5.10478	5.46541	60.807099	#	HT
4309	1288	4	-0.8476	3.64144	10.779	5.524903	#	OT
4310	1288	5	0.4238	4.36915	11.2647	5.040604	#	HT
4311	1288	5	0.4238	3.97117	10.497	6.425904	#	HT
4312	1289	4	-0.8476	23.9823	0.38765	40.112503	#	OT
4313	1289	5	0.4238	24.182699	1.31349	39.792099	#	HT
4314	1289	5	0.4238	23.2234	0.417055	40.7631	#	HT
4315	1290	4	-0.8476	11.2472	25.220501	15.897701	#	OT
4316	1290	5	0.4238	11.0763	24.3901	16.428002	#	HT
4317	1290	5	0.4238	10.5184	25.3416	15.223904	#	HT
4318	1291	4	-0.8476	19.1136	26.687	8.7122	#	OT
4319	1291	5	0.4238	20.008101	26.3897	9.046303	#	HT
4320	1291	5	0.4238	19.2367	27.313801	7.942902	#	HT
4321	1292	4	-0.8476	19.114901	6.36028	36.2575	#	OT
4322	1292	5	0.4238	18.246401	6.55657	35.802506	#	HT
4323	1292	5	0.4238	19.731001	7.14068	36.150704	#	HT
4324	1293	4	-0.8476	17.559799	13.5776	56.736405	#	OT
4325	1293	5	0.4238	16.671801	13.4563	57.179901	#	HT
4326	1293	5	0.4238	17.908899	12.6885	56.440605	#	HT
4327	1294	4	-0.8476	5.54364	22.468599	29.873406	#	OT
4328	1294	5	0.4238	6.28888	22.9375	30.347504	#	HT
4329	1294	5	0.4238	4.9767	23.140699	29.396904	#	HT
4330	1295	4	-0.8476	1.90059	17.765699	24.236901	#	OT
4331	1295	5	0.4238	1.97744	17.6173	23.251	#	HT
4332	1295	5	0.4238	1.17056	18.4244	24.4189	#	HT
4333	1296	4	-0.8476	9.06514	14.5153	18.150002	#	OT
4334	1296	5	0.4238	9.93279	14.9537	17.915604	#	HT
4335	1296	5	0.4238	8.59093	15.0623	18.839802	#	HT
4336	1297	4	-0.8476	11.2712	9.18431	70.335098	#	OT
4337	1297	5	0.4238	10.4327	8.85643	69.900101	#	HT
4338	1297	5	0.4238	11.5846	10.0136	69.8731	#	HT
4339	1298	4	-0.8476	8.57076	3.67929	25.726105	#	OT
4340	1298	5	0.4238	8.59259	4.49199	26.308403	#	HT
4341	1298	5	0.4238	9.48105	3.26644	25.695801	#	HT
4342	1299	4	-0.8476	11.5242	25.2075	69.097099	#	OT
4343	1299	5	0.4238	11.4078	25.597601	70.011101	#	HT
4344	1299	5	0.4238	12.0986	24.3909	69.154099	#	HT
4345	1300	4	-0.8476	19.620199	16.1215	73.353104	#	OT
4346	1300	5	0.4238	19.0021	15.4574	73.774101	#	HT
4347	1300	5	0.4238	20.514799	15.6989	73.2081	#	HT
4348	1301	4	-0.8476	19.4228	12.9509	5.2472	#	OT
4349	1301	5	0.4238	19.704599	12.7622	6.188004	#	HT
4350	1301	5	0.4238	20.0208	12.4583	4.615002	#	HT
4351	26	4	-0.8476	12.3336	27.9928	24.301102	#	OT
4352	26	5	0.4238	11.8471	28.462	23.564202	#	HT
4353	26	5	0.4238	12.5782	28.652399	25.011803	#	HT
4354	49	4	-0.8476	10.2001	12.4805	72.8181	#	OT
4355	49	5	0.4238	10.4609	11.5237	72.946099	#	HT
4356	49	5	0.4238	10.9172	12.9561	72.309105	#	HT
4357	52	4	-0.8476	15.9966	17.626801	76.2631	#	OT
4358	52	5	0.4238	16.4426	18.4583	76.594101	#	HT
4359	52	5	0.4238	16.371901	16.8335	76.743103	#	HT
4360	53	4	-0.8476	19.4937	1.57233	61.589104	#	OT
4361	53	5	0.4238	19.7878	2.37735	61.073105	#	HT
4362	53	5	0.4238	18.614599	1.25293	61.2351	#	HT
4363	69	4	-0.8476	13.2309	1.08739	72.349098	#	OT
4364	69	5	0.4238	12.6897	1.84145	71.977104	#	HT
4365	69	5	0.4238	13.9729	1.4547	72.910103	#	HT
4366	92	4	-0.8476	16.4123	21.603399	41.347603	#	OT
4367	92	5	0.4238	16.837799	21.033501	42.050598	#	HT
4368	92	5	0.4238	15.4803	21.283001	41.177803	#	HT
4369	93	4	-0.8476	18.8566	25.794001	69.523102	#	OT
4370	93	5	0.4238	19.271999	24.885599	69.476105	#	HT
4371	93	5	0.4238	19.1527	26.252399	70.361099	#	HT
4372	94	4	-0.8476	17.346701	3.39565	79.895104	#	OT
4373	94	5	0.4238	16.7908	2.60867	80.162102	#	HT
4374	94	5	0.4238	17.4652	3.3978	78.9021	#	HT
4375	102	4	-0.8476	1.58896	6.69033	85.101105	#	OT
4376	102	5	0.4238	2.02232	7.58005	84.9581	#	HT
4377	102	5	0.4238	2.23184	6.07648	85.559105	#	HT
4378	103	4	-0.8476	3.89525	10.2907	35.565201	#	OT
4379	103	5	0.4238	4.56982	9.6365	35.907204	#	HT
4380	103	5	0.4238	4.15899	10.5934	34.649399	#	HT
4381	104	4	-0.8476	23.994801	27.452801	26.403801	#	OT
4382	104	5	0.4238	23.9576	27.7521	27.357201	#	HT
4383	104	5	0.4238	24.3312	28.2012	25.832298	#	HT
4384	110	4	-0.8476	15.6799	14.2742	7.316002	#	OT
4385	110	5	0.4238	15.1307	13.601	6.820702	#	HT
4386	110	5	0.4238	15.614	15.1604	6.857403	#	HT
4387	113	4	-0.8476	12.7755	5.53794	4.970101	#	OT
4388	113	5	0.4238	12.7637	6.40389	4.470101	#	HT
4389	113	5	0.4238	12.7693	5.72061	5.953301	#	HT
4390	122	4	-0.8476	17.481501	24.780001	32.816704	#	OT
4391	122	5	0.4238	17.978901	23.9841	33.161904	#	HT
4392	122	5	0.4238	17.4179	24.7269	31.820198	#	HT
4393	123	4	-0.8476	23.0152	10.7709	69.856102	#	OT
4394	123	5	0.4238	22.152901	10.2697	69.9301	#	HT
4395	123	5	0.4238	23.7397	10.2567	70.315102	#	HT
4396	128	4	-0.8476	24.068501	27.1187	73.074105	#	OT
4397	128	5	0.4238	23.5453	26.422899	72.5821	#	HT
4398	128	5	0.4238	24.628201	26.679701	73.7771	#	HT
4399	141	4	-0.8476	16.253401	24.538099	18.533501	#	OT
4400	141	5	0.4238	16.7768	24.238001	17.736	#	HT
4401	141	5	0.4238	15.8637	25.4417	18.355702	#	HT
4402	144	4	-0.8476	4.36085	20.572701	86.265106	#	OT
4403	144	5	0.4238	4.67234	19.6511	86.496109	#	HT
4404	144	5	0.4238	3.72736	20.5263	85.492104	#	HT
4405	151	4	-0.8476	13.4251	20.5998	52.792999	#	OT
4406	151	5	0.4238	13.3115	21.589701	52.708	#	HT
4407	151	5	0.4238	12.9915	20.2859	53.637703	#	HT
4408	152	4	-0.8476	5.83304	11.0241	69.035103	#	OT
4409	152	5	0.4238	5.46476	10.2964	68.456101	#	HT
4410	152	5	0.4238	6.44845	10.6285	69.717102	#	HT
4411	153	4	-0.8476	6.50263	19.3267	61.672104	#	OT
4412	153	5	0.4238	6.37833	20.179501	61.1651	#	HT
4413	153	5	0.4238	6.39146	19.501499	62.650101	#	HT
4414	155	4	-0.8476	4.57636	13.1981	54.742905	#	OT
4415	155	5	0.4238	4.21343	13.8939	54.1232	#	HT
4416	155	5	0.4238	5.21551	12.6105	54.246704	#	HT
4417	156	4	-0.8476	5.49509	12.4843	17.939202	#	OT
4418	156	5	0.4238	5.26627	13.4577	17.947403	#	HT
4419	156	5	0.4238	4.71433	11.9612	17.597401	#	HT
4420	157	4	-0.8476	0.108335	22.8636	16.489601	#	OT
4421	157	5	0.4238	24.926001	22.632601	17.1805	#	HT
4422	157	5	0.4238	25.2484	22.6611	15.579903	#	HT
4423	169	4	-0.8476	5.20826	29.438999	68.195099	#	OT
4424	169	5	0.4238	5.40554	28.496401	68.464104	#	HT
4425	169	5	0.4238	5.66385	0.619946	68.825104	#	HT
4426	171	4	-0.8476	2.07991	0.980507	6.237202	#	OT
4427	171	5	0.4238	2.88899	0.503833	5.893402	#	HT
4428	171	5	0.4238	2.1007	0.994099	7.236901	#	HT
4429	174	4	-0.8476	12.5396	22.533899	36.818405	#	OT
4430	174	5	0.4238	13.1156	23.3416	36.944603	#	HT
4431	174	5	0.4238	11.5865	22.8174	36.712898	#	HT
4432	191	4	-0.8476	8.1255	27.935301	85.856102	#	OT
4433	191	5	0.4238	8.05006	28.254	84.911102	#	HT
4434	191	5	0.4238	7.21766	27.6966	86.201096	#	HT
4435	201	4	-0.8476	18.082001	5.67479	62.535103	#	OT
4436	201	5	0.4238	18.127899	4.8151	62.0261	#	HT
4437	201	5	0.4238	17.570601	5.53355	63.383103	#	HT
4438	202	4	-0.8476	22.6411	18.270901	0.6497	#	OT
4439	202	5	0.4238	22.619301	17.2889	0.461701	#	HT
4440	202	5	0.4238	21.758301	18.558901	1.0205	#	HT
4441	204	4	-0.8476	23.189501	0.551967	21.581402	#	OT
4442	204	5	0.4238	24.020201	0.980136	21.937203	#	HT
4443	204	5	0.4238	23.3694	29.0362	21.3843	#	HT
4444	209	4	-0.8476	23.6355	2.61747	31.187401	#	OT
4445	209	5	0.4238	23.818001	1.83123	31.777703	#	HT
4446	209	5	0.4238	24.437401	2.80064	30.618698	#	HT
4447	213	4	-0.8476	16.3615	22.875601	70.639099	#	OT
4448	213	5	0.4238	16.2953	22.926701	71.636101	#	HT
4449	213	5	0.4238	16.8736	22.056499	70.381104	#	HT
4450	214	4	-0.8476	4.44653	28.3822	80.264099	#	OT
4451	214	5	0.4238	3.64157	28.957899	80.407105	#	HT
4452	214	5	0.4238	4.94965	28.292299	81.1231	#	HT
4453	222	4	-0.8476	16.810499	5.58329	31.153801	#	OT
4454	222	5	0.4238	16.5896	5.036	31.961106	#	HT
4455	222	5	0.4238	16.992001	4.977	30.379601	#	HT
4456	223	4	-0.8476	15.38	22.148001	48.994003	#	OT
4457	223	5	0.4238	15.682	21.864	49.904099	#	HT
4458	223	5	0.4238	15.6734	23.088699	48.823899	#	HT
4459	228	4	-0.8476	25.006001	22.645599	56.001702	#	OT
4460	228	5	0.4238	24.045	22.370399	56.025704	#	HT
4461	228	5	0.4238	25.4366	22.281099	55.176003	#	HT
4462	229	4	-0.8476	13.5299	24.436701	30.564598	#	OT
4463	229	5	0.4238	13.0958	24.5578	29.671906	#	HT
4464	229	5	0.4238	14.3524	25.0033	30.614899	#	HT
4465	241	4	-0.8476	17.339701	20.016001	11.274903	#	OT
4466	241	5	0.4238	18.252001	19.8561	10.897904	#	HT
4467	241	5	0.4238	17.3897	20.7234	11.980004	#	HT
4468	248	4	-0.8476	9.70394	12.2719	28.622101	#	OT
4469	248	5	0.4238	9.72817	12.7667	29.490799	#	HT
4470	248	5	0.4238	10.6236	11.9511	28.3955	#	HT
4471	250	4	-0.8476	7.04398	15.0565	65.136101	#	OT
4472	250	5	0.4238	7.86041	14.7187	65.604103	#	HT
4473	250	5	0.4238	7.11358	14.8564	64.158104	#	HT
4474	257	4	-0.8476	17.933001	6.20277	12.327801	#	OT
4475	257	5	0.4238	18.776501	6.70109	12.127102	#	HT
4476	257	5	0.4238	17.2568	6.83244	12.710201	#	HT
4477	258	4	-0.8476	12.9823	25.0336	20.597202	#	OT
4478	258	5	0.4238	12.5624	24.159401	20.840801	#	HT
4479	258	5	0.4238	12.5075	25.423	19.807903	#	HT
4480	259	4	-0.8476	8.72935	6.60978	4.968201	#	OT
4481	259	5	0.4238	8.53258	5.92995	5.674702	#	HT
4482	259	5	0.4238	9.49782	6.29734	4.409802	#	HT
4483	266	4	-0.8476	7.04069	0.743248	83.816101	#	OT
4484	266	5	0.4238	6.99792	1.52714	84.436104	#	HT
4485	266	5	0.4238	7.30664	1.05371	82.904099	#	HT
4486	267	4	-0.8476	18.618401	1.0241	70.112099	#	OT
4487	267	5	0.4238	19.5387	0.862059	69.756104	#	HT
4488	267	5	0.4238	18.259899	1.87735	69.734101	#	HT
4489	277	4	-0.8476	11.4707	8.07207	17.900303	#	OT
4490	277	5	0.4238	11.8481	7.59374	17.107304	#	HT
4491	277	5	0.4238	10.5955	7.65961	18.152901	#	HT
4492	279	4	-0.8476	3.50589	3.86145	55.619805	#	OT
4493	279	5	0.4238	3.80822	3.12168	56.220902	#	HT
4494	279	5	0.4238	3.27856	3.48824	54.720406	#	HT
4495	280	4	-0.8476	4.94386	24.766199	86.348099	#	OT
4496	280	5	0.4238	4.85714	25.631201	85.854103	#	HT
4497	280	5	0.4238	4.09567	24.579	86.844101	#	HT
4498	284	4	-0.8476	5.17347	23.3062	66.078102	#	OT
4499	284	5	0.4238	5.97207	22.7726	66.357102	#	HT
4500	284	5	0.4238	4.56454	22.7334	65.529099	#	HT
4501	293	4	-0.8476	5.96743	8.45466	29.014801	#	OT
4502	293	5	0.4238	5.77148	8.27657	28.050499	#	HT
4503	293	5	0.4238	5.49028	7.78294	29.581505	#	HT
4504	295	4	-0.8476	14.2486	23.6915	74.875099	#	OT
4505	295	5	0.4238	14.3696	24.593901	74.462105	#	HT
4506	295	5	0.4238	13.3035	23.390499	74.7481	#	HT
4507	296	4	-0.8476	24.7229	1.9097	66.771103	#	OT
4508	296	5	0.4238	24.036301	2.54973	66.426102	#	HT
4509	296	5	0.4238	25.125999	1.40865	66.006104	#	HT
4510	305	4	-0.8476	6.58583	8.88779	31.763901	#	OT
4511	305	5	0.4238	6.51942	8.00903	32.236504	#	HT
4512	305	5	0.4238	5.88299	9.50778	32.112602	#	HT
4513	313	4	-0.8476	23.3736	26.3801	23.692803	#	OT
4514	313	5	0.4238	22.7367	26.3032	22.925705	#	HT
4515	313	5	0.4238	24.2017	26.853399	23.392204	#	HT
4516	318	4	-0.8476	1.72244	14.0428	50.854004	#	OT
4517	318	5	0.4238	0.881302	13.6677	51.243599	#	HT
4518	318	5	0.4238	1.56318	14.298	49.900299	#	HT
4519	322	4	-0.8476	11.5441	15.1364	26.589203	#	OT
4520	322	5	0.4238	11.587	14.9415	27.5691	#	HT
4521	322	5	0.4238	12.4672	15.3004	26.241303	#	HT
4522	325	4	-0.8476	17.955601	13.9606	9.690003	#	OT
4523	325	5	0.4238	18.727301	14.1556	10.295403	#	HT
4524	325	5	0.4238	17.5205	13.1047	9.969704	#	HT
4525	327	4	-0.8476	12.5172	5.37866	80.816101	#	OT
4526	327	5	0.4238	12.6515	4.82227	79.996102	#	HT
4527	327	5	0.4238	11.5436	5.57736	80.9291	#	HT
4528	328	4	-0.8476	23.112499	2.39781	59.813103	#	OT
4529	328	5	0.4238	23.5613	1.52132	59.639099	#	HT
4530	328	5	0.4238	22.1779	2.36994	59.4581	#	HT
4531	346	4	-0.8476	1.22318	3.39458	58.426102	#	OT
4532	346	5	0.4238	1.45323	2.55127	57.940705	#	HT
4533	346	5	0.4238	1.79482	4.14144	58.086601	#	HT
4534	347	4	-0.8476	21.261999	16.3029	56.666802	#	OT
4535	347	5	0.4238	21.9681	16.787399	57.183205	#	HT
4536	347	5	0.4238	20.577101	15.9398	57.2985	#	HT
4537	348	4	-0.8476	23.445299	28.701401	62.244103	#	OT
4538	348	5	0.4238	23.4062	29.0401	63.184105	#	HT
4539	348	5	0.4238	24.1919	29.1548	61.758103	#	HT
4540	359	4	-0.8476	4.9251	23.945499	75.470101	#	OT
4541	359	5	0.4238	4.44276	24.759199	75.795105	#	HT
4542	359	5	0.4238	5.10941	23.3372	76.242104	#	HT
4543	360	4	-0.8476	10.7797	12.3443	69.3461	#	OT
4544	360	5	0.4238	11.2174	13.1197	69.801102	#	HT
4545	360	5	0.4238	9.80793	12.5402	69.215103	#	HT
4546	361	4	-0.8476	7.82056	27.1637	35.728905	#	OT
4547	361	5	0.4238	7.53115	28.0762	36.018105	#	HT
4548	361	5	0.4238	8.76894	27.1991	35.413704	#	HT
4549	366	4	-0.8476	3.07924	15.4345	46.255799	#	OT
4550	366	5	0.4238	2.62829	14.9478	45.507599	#	HT
4551	366	5	0.4238	3.68505	14.8067	46.744499	#	HT
4552	367	4	-0.8476	22.957399	16.9224	41.175804	#	OT
4553	367	5	0.4238	22.6078	16.3097	40.467003	#	HT
4554	367	5	0.4238	23.558901	16.4121	41.790505	#	HT
4555	368	4	-0.8476	4.91645	28.9872	11.085102	#	OT
4556	368	5	0.4238	4.04779	29.1019	10.603203	#	HT
4557	368	5	0.4238	5.36872	28.1553	10.7635	#	HT
4558	369	4	-0.8476	13.0978	20.377399	72.730103	#	OT
4559	369	5	0.4238	12.9252	19.896299	73.590103	#	HT
4560	369	5	0.4238	13.9822	20.0924	72.3601	#	HT
4561	378	4	-0.8476	1.29481	14.111	71.925102	#	OT
4562	378	5	0.4238	0.896748	14.7282	71.246102	#	HT
4563	378	5	0.4238	0.771934	13.2589	71.948105	#	HT
4564	379	4	-0.8476	9.1027	22.4786	13.7486	#	OT
4565	379	5	0.4238	8.55434	23.168501	14.221104	#	HT
4566	379	5	0.4238	8.71531	21.5721	13.917004	#	HT
4567	381	4	-0.8476	16.940599	4.28409	59.141098	#	OT
4568	381	5	0.4238	16.213301	3.8909	59.704102	#	HT
4569	381	5	0.4238	17.276199	3.59394	58.500099	#	HT
4570	382	4	-0.8476	17.751101	22.070499	13.136704	#	OT
4571	382	5	0.4238	18.506599	22.722799	13.076103	#	HT
4572	382	5	0.4238	17.5595	21.8706	14.097603	#	HT
4573	391	4	-0.8476	15.7976	1.20229	23.338906	#	OT
4574	391	5	0.4238	16.3153	1.81647	22.743302	#	HT
4575	391	5	0.4238	14.8271	1.43996	23.300202	#	HT
4576	392	4	-0.8476	10.4712	17.884001	27.069306	#	OT
4577	392	5	0.4238	10.5231	17.011101	27.554505	#	HT
4578	392	5	0.4238	11.2618	18.446899	27.310501	#	HT
4579	393	4	-0.8476	9.10328	27.497	81.070099	#	OT
4580	393	5	0.4238	8.78453	27.9473	80.236099	#	HT
4581	393	5	0.4238	8.38269	26.900101	81.423104	#	HT
4582	395	4	-0.8476	5.9867	5.26413	2.241802	#	OT
4583	395	5	0.4238	5.52271	4.86651	1.450302	#	HT
4584	395	5	0.4238	6.67872	4.62538	2.578102	#	HT
4585	403	4	-0.8476	8.8772	2.77193	56.583801	#	OT
4586	403	5	0.4238	8.71735	2.46952	57.523499	#	HT
4587	403	5	0.4238	8.006	3.02211	56.1614	#	HT
4588	405	4	-0.8476	21.4632	7.08485	57.708	#	OT
4589	405	5	0.4238	21.48	6.20388	57.2351	#	HT
4590	405	5	0.4238	22.389999	7.45792	57.7509	#	HT
4591	416	4	-0.8476	14.6034	13.6888	34.045105	#	OT
4592	416	5	0.4238	14.2477	14.1212	34.873703	#	HT
4593	416	5	0.4238	13.843	13.3317	33.502701	#	HT
4594	417	4	-0.8476	15.0115	3.45284	65.508103	#	OT
4595	417	5	0.4238	14.425	3.0335	66.201103	#	HT
4596	417	5	0.4238	15.8682	2.94119	65.442101	#	HT
4597	420	4	-0.8476	0.814453	1.38169	28.388802	#	OT
4598	420	5	0.4238	0.966242	0.399078	28.495804	#	HT
4599	420	5	0.4238	1.69388	1.85765	28.397103	#	HT
4600	421	4	-0.8476	12.5592	13.9596	10.805203	#	OT
4601	421	5	0.4238	12.5899	13.1294	10.248703	#	HT
4602	421	5	0.4238	11.9347	13.8227	11.574101	#	HT
4603	422	4	-0.8476	19.943399	7.62422	65.522103	#	OT
4604	422	5	0.4238	19.931801	7.76221	64.532105	#	HT
4605	422	5	0.4238	19.023001	7.76027	65.889099	#	HT
4606	432	4	-0.8476	7.76336	3.40016	2.289902	#	OT
4607	432	5	0.4238	8.47556	4.09287	2.176201	#	HT
4608	432	5	0.4238	8.13274	2.50081	2.056004	#	HT
4609	434	4	-0.8476	1.89223	17.3092	86.484101	#	OT
4610	434	5	0.4238	2.87071	17.160801	86.627106	#	HT
4611	434	5	0.4238	1.66855	18.2649	86.675095	#	HT
4612	436	4	-0.8476	12.6393	10.3287	8.018803	#	OT
4613	436	5	0.4238	13.5564	10.7228	8.080002	#	HT
4614	436	5	0.4238	12.0362	10.7847	8.673302	#	HT
4615	448	4	-0.8476	6.12421	23.5697	83.567101	#	OT
4616	448	5	0.4238	5.4025	23.0284	83.135102	#	HT
4617	448	5	0.4238	6.33609	23.1866	84.466103	#	HT
4618	449	4	-0.8476	16.2297	11.589	83.274101	#	OT
4619	449	5	0.4238	15.6438	11.0065	83.837105	#	HT
4620	449	5	0.4238	17.164	11.2329	83.286102	#	HT
4621	450	4	-0.8476	14.7727	5.9168	69.156105	#	OT
4622	450	5	0.4238	14.4489	4.97436	69.073105	#	HT
4623	450	5	0.4238	15.5765	5.94174	69.751099	#	HT
4624	451	4	-0.8476	5.22109	7.98639	4.392101	#	OT
4625	451	5	0.4238	5.87223	8.47257	3.809303	#	HT
4626	451	5	0.4238	4.63539	8.64744	4.861103	#	HT
4627	464	4	-0.8476	22.018499	2.45544	19.561703	#	OT
4628	464	5	0.4238	22.228701	3.43307	19.556004	#	HT
4629	464	5	0.4238	22.4328	2.02076	18.7621	#	HT
4630	465	4	-0.8476	0.774089	0.43524	47.538399	#	OT
4631	465	5	0.4238	0.576544	29.064501	46.999298	#	HT
4632	465	5	0.4238	0.519845	1.24841	47.014801	#	HT
4633	476	4	-0.8476	20.232	21.380301	85.706101	#	OT
4634	476	5	0.4238	19.302	21.16	85.412102	#	HT
4635	476	5	0.4238	20.2864	22.351101	85.940102	#	HT
4636	482	4	-0.8476	8.96544	19.432199	36.557701	#	OT
4637	482	5	0.4238	9.21676	19.274599	35.602699	#	HT
4638	482	5	0.4238	7.9734	19.356199	36.658203	#	HT
4639	483	4	-0.8476	22.6901	13.3528	62.472099	#	OT
4640	483	5	0.4238	22.962999	13.6624	63.383103	#	HT
4641	483	5	0.4238	21.7698	13.6868	62.269104	#	HT
4642	497	4	-0.8476	13.0885	9.4606	19.983303	#	OT
4643	497	5	0.4238	13.5952	10.139	19.451302	#	HT
4644	497	5	0.4238	12.5149	8.91703	19.370503	#	HT
4645	504	4	-0.8476	5.02096	11.9044	23.230805	#	OT
4646	504	5	0.4238	5.96484	11.6786	23.471703	#	HT
4647	504	5	0.4238	4.99002	12.2503	22.292999	#	HT
4648	509	4	-0.8476	1.05667	10.4484	6.425701	#	OT
4649	509	5	0.4238	1.95434	10.6113	6.0163	#	HT
4650	509	5	0.4238	0.360643	10.4334	5.707901	#	HT
4651	511	4	-0.8476	22.7236	18.354799	25.040703	#	OT
4652	511	5	0.4238	23.629801	18.6675	24.756203	#	HT
4653	511	5	0.4238	22.0249	18.9419	24.632004	#	HT
4654	516	4	-0.8476	0.031255	13.2581	4.260403	#	OT
4655	516	5	0.4238	0.765158	12.591	4.132801	#	HT
4656	516	5	0.4238	0.170462	13.746	5.122101	#	HT
4657	517	4	-0.8476	14.9217	0.497388	62.925102	#	OT
4658	517	5	0.4238	14.056	0.380184	63.412102	#	HT
4659	517	5	0.4238	15.1594	29.0938	62.4581	#	HT
4660	518	4	-0.8476	9.381	10.6166	2.002403	#	OT
4661	518	5	0.4238	9.5565	9.95102	1.277001	#	HT
4662	518	5	0.4238	9.7494	11.5067	1.734303	#	HT
4663	520	4	-0.8476	19.7047	2.00843	73.601105	#	OT
4664	520	5	0.4238	20.1031	2.84033	73.215103	#	HT
4665	520	5	0.4238	20.2742	1.22278	73.3601	#	HT
4666	527	4	-0.8476	21.0231	10.4497	60.293099	#	OT
4667	527	5	0.4238	20.868999	10.6227	61.266098	#	HT
4668	527	5	0.4238	20.2316	10.7642	59.769104	#	HT
4669	545	4	-0.8476	25.1355	18.257099	18.498501	#	OT
4670	545	5	0.4238	0.344249	17.5665	18.628403	#	HT
4671	545	5	0.4238	24.9814	18.7428	19.358902	#	HT
4672	547	4	-0.8476	11.662	22.327499	30.489105	#	OT
4673	547	5	0.4238	10.8977	22.9125	30.217804	#	HT
4674	547	5	0.4238	11.9207	21.740101	29.722305	#	HT
4675	548	4	-0.8476	11.2036	24.647499	32.353203	#	OT
4676	548	5	0.4238	10.6417	24.5653	33.1763	#	HT
4677	548	5	0.4238	10.727	25.211901	31.679199	#	HT
4678	549	4	-0.8476	22.9991	12.7173	84.936104	#	OT
4679	549	5	0.4238	22.669901	13.5148	85.442101	#	HT
4680	549	5	0.4238	23.271	12.0028	85.581101	#	HT
4681	561	4	-0.8476	22.0326	24.930599	58.411102	#	OT
4682	561	5	0.4238	21.089399	25.2577	58.468102	#	HT
4683	561	5	0.4238	22.6462	25.706499	58.265099	#	HT
4684	562	4	-0.8476	4.722	23.014601	68.949105	#	OT
4685	562	5	0.4238	3.84673	23.497801	68.969101	#	HT
4686	562	5	0.4238	4.89503	22.6772	68.024101	#	HT
4687	563	4	-0.8476	17.678699	24.1423	84.558106	#	OT
4688	563	5	0.4238	18.5189	24.277399	85.0831	#	HT
4689	563	5	0.4238	17.909201	23.946699	83.605103	#	HT
4690	564	4	-0.8476	23.1766	27.489201	67.478104	#	OT
4691	564	5	0.4238	23.5886	28.180401	68.072106	#	HT
4692	564	5	0.4238	22.207001	27.696501	67.348099	#	HT
4693	565	4	-0.8476	13.0507	14.1968	15.273003	#	OT
4694	565	5	0.4238	13.7128	14.9462	15.282501	#	HT
4695	565	5	0.4238	12.6329	14.1326	14.366703	#	HT
4696	576	4	-0.8476	6.3367	10.0285	61.8191	#	OT
4697	576	5	0.4238	6.48774	9.2733	62.4571	#	HT
4698	576	5	0.4238	5.35588	10.1369	61.657105	#	HT
4699	577	4	-0.8476	2.65968	4.09188	86.107102	#	OT
4700	577	5	0.4238	3.26175	3.29393	86.079102	#	HT
4701	577	5	0.4238	1.71806	3.79364	86.264099	#	HT
4702	579	4	-0.8476	17.738501	20.7962	84.8881	#	OT
4703	579	5	0.4238	17.266001	20.047701	85.354103	#	HT
4704	579	5	0.4238	17.111799	21.567301	84.7761	#	HT
4705	583	4	-0.8476	0.808046	25.9613	74.633103	#	OT
4706	583	5	0.4238	1.45755	26.7194	74.574105	#	HT
4707	583	5	0.4238	0.941104	25.4748	75.496102	#	HT
4708	591	4	-0.8476	14.7646	19.1609	29.951904	#	OT
4709	591	5	0.4238	15.7093	19.100599	30.274002	#	HT
4710	591	5	0.4238	14.6095	18.473	29.243004	#	HT
4711	601	4	-0.8476	4.92726	25.038799	31.857002	#	OT
4712	601	5	0.4238	5.2377	25.9846	31.760803	#	HT
4713	601	5	0.4238	5.68968	24.4669	32.159699	#	HT
4714	602	4	-0.8476	12.7892	2.79679	36.009705	#	OT
4715	602	5	0.4238	13.0713	3.09316	36.922104	#	HT
4716	602	5	0.4238	13.0135	1.82975	35.889099	#	HT
4717	604	4	-0.8476	7.59435	10.1523	79.2631	#	OT
4718	604	5	0.4238	6.63022	10.1511	79.528099	#	HT
4719	604	5	0.4238	7.66555	10.1307	78.266098	#	HT
4720	614	4	-0.8476	12.7331	23.6938	59.182099	#	OT
4721	614	5	0.4238	13.4016	22.9893	59.420105	#	HT
4722	614	5	0.4238	11.9843	23.6805	59.845101	#	HT
4723	622	4	-0.8476	3.35992	2.71241	44.926605	#	OT
4724	622	5	0.4238	3.50684	1.84108	45.394798	#	HT
4725	622	5	0.4238	4.0907	3.34966	45.171303	#	HT
4726	623	4	-0.8476	12.4932	4.59004	33.078301	#	OT
4727	623	5	0.4238	12.233	3.62473	33.056801	#	HT
4728	623	5	0.4238	11.9399	5.06934	33.759499	#	HT
4729	631	4	-0.8476	19.776199	3.43327	13.8349	#	OT
4730	631	5	0.4238	19.260799	3.06551	14.608902	#	HT
4731	631	5	0.4238	20.583401	2.86589	13.6721	#	HT
4732	637	4	-0.8476	6.02389	18.576401	68.211106	#	OT
4733	637	5	0.4238	6.22289	18.406601	67.246102	#	HT
4734	637	5	0.4238	6.18351	19.5413	68.420105	#	HT
4735	644	4	-0.8476	11.8869	14.3398	71.497101	#	OT
4736	644	5	0.4238	11.6425	15.2337	71.872101	#	HT
4737	644	5	0.4238	12.7791	14.3992	71.049103	#	HT
4738	645	4	-0.8476	0.468555	5.65833	11.915802	#	OT
4739	645	5	0.4238	0.060794	6.20995	12.643402	#	HT
4740	645	5	0.4238	25.249399	5.30708	11.3195	#	HT
4741	657	4	-0.8476	8.85879	19.516701	82.514099	#	OT
4742	657	5	0.4238	8.44049	20.0854	83.223099	#	HT
4743	657	5	0.4238	8.14218	19.100901	81.954102	#	HT
4744	658	4	-0.8476	10.2765	27.705	34.998902	#	OT
4745	658	5	0.4238	10.0106	28.1122	34.125099	#	HT
4746	658	5	0.4238	10.9916	28.2614	35.422104	#	HT
4747	666	4	-0.8476	8.73224	25.350901	85.378105	#	OT
4748	666	5	0.4238	8.83838	26.3057	85.656105	#	HT
4749	666	5	0.4238	7.76845	25.091299	85.439102	#	HT
4750	670	4	-0.8476	22.9375	28.703199	46.200699	#	OT
4751	670	5	0.4238	23.072399	28.584101	45.217003	#	HT
4752	670	5	0.4238	22.615101	0.18413	46.382904	#	HT
4753	671	4	-0.8476	0.957602	5.85802	37.035401	#	OT
4754	671	5	0.4238	25.471701	5.71222	36.997505	#	HT
4755	671	5	0.4238	1.15857	6.62201	37.648606	#	HT
4756	672	4	-0.8476	1.76602	0.79129	85.947106	#	OT
4757	672	5	0.4238	2.65895	1.20171	85.7621	#	HT
4758	672	5	0.4238	1.13199	1.49904	86.259094	#	HT
4759	684	4	-0.8476	2.19533	25.790701	9.323002	#	OT
4760	684	5	0.4238	2.22215	26.780199	9.465203	#	HT
4761	684	5	0.4238	2.84446	25.3475	9.9412	#	HT
4762	686	4	-0.8476	11.1361	7.16746	77.352104	#	OT
4763	686	5	0.4238	10.5507	7.64724	76.699105	#	HT
4764	686	5	0.4238	11.5896	7.83322	77.945099	#	HT
4765	695	4	-0.8476	16.9142	23.558001	56.064202	#	OT
4766	695	5	0.4238	17.355101	23.0769	56.8219	#	HT
4767	695	5	0.4238	16.7663	22.922199	55.306702	#	HT
4768	699	4	-0.8476	10.5554	19.879	51.7659	#	OT
4769	699	5	0.4238	11.5484	19.9895	51.8078	#	HT
4770	699	5	0.4238	10.2105	19.6203	52.668099	#	HT
4771	707	4	-0.8476	14.4201	4.96343	43.2192	#	OT
4772	707	5	0.4238	14.0041	4.20615	43.722702	#	HT
4773	707	5	0.4238	14.9411	5.53739	43.851006	#	HT
4774	709	4	-0.8476	12.6297	24.938299	81.344101	#	OT
4775	709	5	0.4238	11.9575	24.198099	81.3601	#	HT
4776	709	5	0.4238	13.2082	24.8808	82.157105	#	HT
4777	710	4	-0.8476	21.156601	10.6959	63.120102	#	OT
4778	710	5	0.4238	21.6751	11.5088	62.855103	#	HT
4779	710	5	0.4238	21.788099	9.94184	63.300102	#	HT
4780	712	4	-0.8476	21.7213	11.7536	37.4674	#	OT
4781	712	5	0.4238	22.212601	11.5946	38.323799	#	HT
4782	712	5	0.4238	22.3787	11.9049	36.729202	#	HT
4783	714	4	-0.8476	18.8123	19.782801	58.601105	#	OT
4784	714	5	0.4238	19.023701	19.1625	57.845803	#	HT
4785	714	5	0.4238	19.4132	19.5826	59.375099	#	HT
4786	732	4	-0.8476	4.32683	14.1552	84.426102	#	OT
4787	732	5	0.4238	3.87774	14.9514	84.021103	#	HT
4788	732	5	0.4238	4.31784	13.3985	83.773102	#	HT
4789	733	4	-0.8476	8.36439	6.08185	21.154602	#	OT
4790	733	5	0.4238	8.54955	6.3149	22.109303	#	HT
4791	733	5	0.4238	9.22918	5.9669	20.665802	#	HT
4792	735	4	-0.8476	0.071093	24.8146	35.124298	#	OT
4793	735	5	0.4238	24.8211	25.472401	35.0989	#	HT
4794	735	5	0.4238	25.440399	24.127701	34.409805	#	HT
4795	736	4	-0.8476	16.6936	18.7945	21.655701	#	OT
4796	736	5	0.4238	16.692301	17.906401	21.1959	#	HT
4797	736	5	0.4238	15.8361	18.9116	22.156601	#	HT
4798	737	4	-0.8476	23.1308	13.7794	32.770699	#	OT
4799	737	5	0.4238	23.095699	12.7817	32.713005	#	HT
4800	737	5	0.4238	22.744301	14.0766	33.643799	#	HT
4801	738	4	-0.8476	10.745	16.252399	32.9459	#	OT
4802	738	5	0.4238	11.3047	15.4657	32.685402	#	HT
4803	738	5	0.4238	10.3749	16.1089	33.8638	#	HT
4804	743	4	-0.8476	8.49847	27.4659	75.913101	#	OT
4805	743	5	0.4238	8.20489	28.238501	75.350105	#	HT
4806	743	5	0.4238	8.16242	26.6141	75.511101	#	HT
4807	744	4	-0.8476	0.695441	28.604799	54.949402	#	OT
4808	744	5	0.4238	25.245001	28.9062	54.974205	#	HT
4809	744	5	0.4238	0.751655	27.6521	55.247902	#	HT
4810	746	4	-0.8476	16.672501	3.06335	69.427101	#	OT
4811	746	5	0.4238	16.846201	3.61339	68.6101	#	HT
4812	746	5	0.4238	15.7194	3.17565	69.7081	#	HT
4813	767	4	-0.8476	6.69666	15.9555	25.307404	#	OT
4814	767	5	0.4238	6.56404	16.2393	26.257103	#	HT
4815	767	5	0.4238	7.26572	15.1336	25.281601	#	HT
4816	768	4	-0.8476	21.9165	14.9089	36.603806	#	OT
4817	768	5	0.4238	22.625601	14.2107	36.702599	#	HT
4818	768	5	0.4238	21.025801	14.4667	36.497704	#	HT
4819	775	4	-0.8476	23.807899	10.3985	86.329102	#	OT
4820	775	5	0.4238	23.612101	9.71062	87.028107	#	HT
4821	775	5	0.4238	24.7094	10.2241	85.933106	#	HT
4822	785	4	-0.8476	7.56914	17.457199	56.3415	#	OT
4823	785	5	0.4238	8.36435	17.487101	56.947106	#	HT
4824	785	5	0.4238	7.85331	17.672899	55.407303	#	HT
4825	795	4	-0.8476	16.9489	8.52274	78.727104	#	OT
4826	795	5	0.4238	17.5858	8.7318	77.9851	#	HT
4827	795	5	0.4238	17.373301	7.87255	79.357102	#	HT
4828	797	4	-0.8476	18.725401	10.4141	66.9851	#	OT
4829	797	5	0.4238	18.327801	9.50493	66.862099	#	HT
4830	797	5	0.4238	18.3218	10.8474	67.7911	#	HT
4831	802	4	-0.8476	12.2136	16.054001	66.199105	#	OT
4832	802	5	0.4238	12.8503	16.8004	66.006104	#	HT
4833	802	5	0.4238	11.7657	15.7699	65.352104	#	HT
4834	804	4	-0.8476	6.72204	17.0485	18.665703	#	OT
4835	804	5	0.4238	6.3039	17.8036	19.1707	#	HT
4836	804	5	0.4238	6.06418	16.6833	18.007	#	HT
4837	815	4	-0.8476	21.496099	2.11115	81.061104	#	OT
4838	815	5	0.4238	21.3111	1.16768	81.336106	#	HT
4839	815	5	0.4238	21.752399	2.13251	80.095101	#	HT
4840	816	4	-0.8476	3.69326	14.3919	38.887901	#	OT
4841	816	5	0.4238	3.33944	13.7301	38.227005	#	HT
4842	816	5	0.4238	3.98168	13.9132	39.717102	#	HT
4843	817	4	-0.8476	9.82446	19.1684	86.324097	#	OT
4844	817	5	0.4238	10.4258	18.988199	87.102097	#	HT
4845	817	5	0.4238	9.40462	18.312599	86.022103	#	HT
4846	842	4	-0.8476	21.0917	8.67341	73.8331	#	OT
4847	842	5	0.4238	20.4135	9.29977	73.449105	#	HT
4848	842	5	0.4238	21.9715	9.14224	73.912102	#	HT
4849	843	4	-0.8476	23.1297	14.2854	8.371304	#	OT
4850	843	5	0.4238	24.0075	14.4369	7.916901	#	HT
4851	843	5	0.4238	22.693399	15.1661	8.555802	#	HT
4852	851	4	-0.8476	4.24057	29.234501	4.942501	#	OT
4853	851	5	0.4238	5.18758	29.096201	5.232403	#	HT
4854	851	5	0.4238	4.01552	28.5837	4.217404	#	HT
4855	855	4	-0.8476	9.6331	24.1884	34.371605	#	OT
4856	855	5	0.4238	9.20352	23.286699	34.323403	#	HT
4857	855	5	0.4238	9.66408	24.492399	35.323799	#	HT
4858	861	4	-0.8476	16.030199	15.4916	29.588501	#	OT
4859	861	5	0.4238	15.3743	16.1311	29.1875	#	HT
4860	861	5	0.4238	15.8858	15.4419	30.576805	#	HT
4861	870	4	-0.8476	12.3439	9.57289	0.802304	#	OT
4862	870	5	0.4238	12.6839	10.5015	0.653702	#	HT
4863	870	5	0.4238	12.6856	9.22872	1.676804	#	HT
4864	877	4	-0.8476	15.2403	26.5296	79.127098	#	OT
4865	877	5	0.4238	14.9987	25.7677	78.5261	#	HT
4866	877	5	0.4238	15.3871	26.1884	80.0551	#	HT
4867	881	4	-0.8476	23.642401	21.138201	63.8881	#	OT
4868	881	5	0.4238	24.215401	20.9018	64.673104	#	HT
4869	881	5	0.4238	23.3391	22.0875	63.9711	#	HT
4870	882	4	-0.8476	9.54518	10.1567	33.711106	#	OT
4871	882	5	0.4238	10.0154	9.27773	33.790604	#	HT
4872	882	5	0.4238	9.68945	10.6886	34.545601	#	HT
4873	887	4	-0.8476	19.601	19.073099	56.047699	#	OT
4874	887	5	0.4238	19.6576	18.372999	55.3358	#	HT
4875	887	5	0.4238	20.5019	19.485901	56.181702	#	HT
4876	888	4	-0.8476	4.27281	18.0235	83.2071	#	OT
4877	888	5	0.4238	3.32287	18.211599	83.456101	#	HT
4878	888	5	0.4238	4.56067	18.657301	82.489105	#	HT
4879	893	4	-0.8476	13.0387	7.7028	35.9692	#	OT
4880	893	5	0.4238	12.237	7.64229	36.563904	#	HT
4881	893	5	0.4238	13.6652	6.9515	36.176804	#	HT
4882	896	4	-0.8476	15.2297	23.5923	15.060402	#	OT
4883	896	5	0.4238	14.6796	24.409	15.235001	#	HT
4884	896	5	0.4238	15.9676	23.537399	15.733002	#	HT
4885	900	4	-0.8476	24.0949	16.362301	65.908104	#	OT
4886	900	5	0.4238	24.9499	16.1127	66.363098	#	HT
4887	900	5	0.4238	23.5326	16.906099	66.531105	#	HT
4888	906	4	-0.8476	19.423401	25.0278	80.5691	#	OT
4889	906	5	0.4238	19.092899	24.997299	79.625099	#	HT
4890	906	5	0.4238	18.990101	24.298	81.098099	#	HT
4891	907	4	-0.8476	13.7989	8.70902	47.684105	#	OT
4892	907	5	0.4238	13.2596	7.89851	47.912705	#	HT
4893	907	5	0.4238	14.3618	8.96721	48.4692	#	HT
4894	914	4	-0.8476	15.8878	25.9387	81.740105	#	OT
4895	914	5	0.4238	15.2885	25.505301	82.413101	#	HT
4896	914	5	0.4238	16.676701	26.339899	82.205101	#	HT
4897	936	4	-0.8476	13.6526	6.36663	31.043801	#	OT
4898	936	5	0.4238	13.7854	7.31733	31.324105	#	HT
4899	936	5	0.4238	13.5822	5.78662	31.8554	#	HT
4900	937	4	-0.8476	11.2566	13.5094	24.304802	#	OT
4901	937	5	0.4238	11.2932	13.7161	25.282601	#	HT
4902	937	5	0.4238	11.8163	12.7031	24.113503	#	HT
4903	948	4	-0.8476	13.8858	25.989799	23.282906	#	OT
4904	948	5	0.4238	13.9162	25.319201	24.024101	#	HT
4905	948	5	0.4238	13.4276	26.819201	23.602402	#	HT
4906	952	4	-0.8476	12.6265	14.8529	81.973099	#	OT
4907	952	5	0.4238	12.0567	15.6084	82.296105	#	HT
4908	952	5	0.4238	12.0416	14.1114	81.644104	#	HT
4909	961	4	-0.8476	21.125799	3.4857	31.531601	#	OT
4910	961	5	0.4238	21.988501	3.10747	31.196099	#	HT
4911	961	5	0.4238	20.5021	2.73905	31.762901	#	HT
4912	962	4	-0.8476	3.96901	22.955	14.907303	#	OT
4913	962	5	0.4238	3.67854	22.1483	14.3927	#	HT
4914	962	5	0.4238	4.5834	23.506701	14.343201	#	HT
4915	963	4	-0.8476	9.0761	8.33627	9.853001	#	OT
4916	963	5	0.4238	9.77572	8.98679	10.148602	#	HT
4917	963	5	0.4238	9.46142	7.41353	9.844101	#	HT
4918	970	4	-0.8476	18.413601	1.02606	14.521801	#	OT
4919	970	5	0.4238	18.3645	1.20844	15.503803	#	HT
4920	970	5	0.4238	17.491501	0.879929	14.163403	#	HT
4921	971	4	-0.8476	18.3419	26.1766	24.656899	#	OT
4922	971	5	0.4238	17.9219	27.005199	24.286904	#	HT
4923	971	5	0.4238	18.8251	26.397499	25.504105	#	HT
4924	972	4	-0.8476	1.38618	9.72125	68.264099	#	OT
4925	972	5	0.4238	0.795593	9.488	67.491104	#	HT
4926	972	5	0.4238	1.10898	10.6052	68.640099	#	HT
4927	976	4	-0.8476	10.0352	4.37831	60.562103	#	OT
4928	976	5	0.4238	9.77273	4.66274	59.640099	#	HT
4929	976	5	0.4238	11.0324	4.36122	60.635102	#	HT
4930	978	4	-0.8476	9.97947	25.583	19.089802	#	OT
4931	978	5	0.4238	10.565	26.235399	18.608502	#	HT
4932	978	5	0.4238	10.1782	24.657	18.768803	#	HT
4933	979	4	-0.8476	1.89737	0.837737	32.748604	#	OT
4934	979	5	0.4238	2.78796	0.455679	32.501801	#	HT
4935	979	5	0.4238	1.17278	0.297321	32.3209	#	HT
4936	988	4	-0.8476	23.3888	3.99495	7.059902	#	OT
4937	988	5	0.4238	23.7442	4.91152	6.876602	#	HT
4938	988	5	0.4238	23.491699	3.42796	6.242603	#	HT
4939	989	4	-0.8476	10.3217	19.409401	30.494103	#	OT
4940	989	5	0.4238	11.0269	19.8267	29.920799	#	HT
4941	989	5	0.4238	9.41905	19.7003	30.176903	#	HT
4942	995	4	-0.8476	17.1278	13.5675	13.859902	#	OT
4943	995	5	0.4238	16.567301	12.7406	13.905201	#	HT
4944	995	5	0.4238	16.9245	14.0621	13.0149	#	HT
4945	996	4	-0.8476	21.1294	3.07587	28.042404	#	OT
4946	996	5	0.4238	21.145399	2.60377	27.161003	#	HT
4947	996	5	0.4238	21.2129	2.4065	28.780602	#	HT
4948	1008	4	-0.8476	8.90672	8.99238	41.263298	#	OT
4949	1008	5	0.4238	9.3311	8.60647	40.444199	#	HT
4950	1008	5	0.4238	7.92156	9.08259	41.117302	#	HT
4951	1009	4	-0.8476	11.6377	16.6742	36.560402	#	OT
4952	1009	5	0.4238	11.4324	17.4932	37.096199	#	HT
4953	1009	5	0.4238	10.7852	16.2714	36.227204	#	HT
4954	1014	4	-0.8476	2.27152	11.6241	9.066803	#	OT
4955	1014	5	0.4238	2.78125	12.2803	9.623303	#	HT
4956	1014	5	0.4238	2.89546	10.9215	8.724903	#	HT
4957	1028	4	-0.8476	11.41	23.2614	64.312103	#	OT
4958	1028	5	0.4238	11.5818	24.1381	64.761101	#	HT
4959	1028	5	0.4238	11.6452	22.515699	64.935105	#	HT
4960	1029	4	-0.8476	25.2771	0.974035	18.880303	#	OT
4961	1029	5	0.4238	0.353925	1.39441	19.578503	#	HT
4962	1029	5	0.4238	24.945	0.090492	19.210503	#	HT
4963	1040	4	-0.8476	0.587111	12.5413	25.6614	#	OT
4964	1040	5	0.4238	25.1572	12.5041	26.020203	#	HT
4965	1040	5	0.4238	1.15944	11.8841	26.151802	#	HT
4966	1044	4	-0.8476	24.8729	2.82853	39.174004	#	OT
4967	1044	5	0.4238	24.610701	3.25653	38.308998	#	HT
4968	1044	5	0.4238	25.048201	3.53753	39.857002	#	HT
4969	1047	4	-0.8476	15.4933	0.131729	25.734001	#	OT
4970	1047	5	0.4238	15.628	28.59	25.6866	#	HT
4971	1047	5	0.4238	15.6656	0.534974	24.835304	#	HT
4972	1048	4	-0.8476	0.231738	3.09076	86.606095	#	OT
4973	1048	5	0.4238	25.2738	3.60818	87.327103	#	HT
4974	1048	5	0.4238	25.214899	3.16983	85.755104	#	HT
4975	1053	4	-0.8476	16.486799	1.77036	7.404202	#	OT
4976	1053	5	0.4238	15.5855	2.05538	7.7304	#	HT
4977	1053	5	0.4238	16.961599	1.27199	8.129601	#	HT
4978	1055	4	-0.8476	17.739401	1.04182	9.603604	#	OT
4979	1055	5	0.4238	17.027399	0.747804	10.241303	#	HT
4980	1055	5	0.4238	18.585699	1.21729	10.106701	#	HT
4981	1057	4	-0.8476	19.744699	13.3734	36.243401	#	OT
4982	1057	5	0.4238	18.85	13.1304	36.618302	#	HT
4983	1057	5	0.4238	20.350201	12.5786	36.284104	#	HT
4984	1062	4	-0.8476	8.24254	23.994101	80.824105	#	OT
4985	1062	5	0.4238	7.97165	24.703899	81.474098	#	HT
4986	1062	5	0.4238	8.72099	23.2624	81.309105	#	HT
4987	1068	4	-0.8476	10.3245	5.92579	54.015801	#	OT
4988	1068	5	0.4238	10.6634	5.03185	54.309204	#	HT
4989	1068	5	0.4238	9.54256	6.18783	54.581398	#	HT
4990	1078	4	-0.8476	12.4627	18.486601	32.130402	#	OT
4991	1078	5	0.4238	12.7645	18.6845	33.063004	#	HT
4992	1078	5	0.4238	13.2545	18.4718	31.519798	#	HT
4993	1096	4	-0.8476	25.239401	11.8901	72.130104	#	OT
4994	1096	5	0.4238	24.6059	11.946	72.9011	#	HT
4995	1096	5	0.4238	0.043251	10.9448	72.018105	#	HT
4996	1099	4	-0.8476	7.19002	10.5156	76.363098	#	OT
4997	1099	5	0.4238	8.18713	10.5854	76.3331	#	HT
4998	1099	5	0.4238	6.9245	9.5525	76.407105	#	HT
4999	1101	4	-0.8476	18.825899	10.8724	1.149803	#	OT
5000	1101	5	0.4238	18.014299	10.3006	1.270001	#	HT
5001	1101	5	0.4238	18.5555	11.7615	0.780503	#	HT
5002	1103	4	-0.8476	11.3946	25.4734	72.003105	#	OT
5003	1103	5	0.4238	11.7518	24.551901	72.156105	#	HT
5004	1103	5	0.4238	11.9536	26.134501	72.504105	#	HT
5005	1104	4	-0.8476	0.816102	8.45465	76.884102	#	OT
5006	1104	5	0.4238	0.406396	8.53129	77.793099	#	HT
5007	1104	5	0.4238	0.584183	9.26409	76.344101	#	HT
5008	1106	4	-0.8476	10.4502	15.0416	86.483109	#	OT
5009	1106	5	0.4238	9.84505	14.2456	86.492096	#	HT
5010	1106	5	0.4238	11.3374	14.7903	86.870102	#	HT
5011	1111	4	-0.8476	17.2663	20.0133	64.433106	#	OT
5012	1111	5	0.4238	17.864599	19.2148	64.366104	#	HT
5013	1111	5	0.4238	16.390699	19.811501	63.994103	#	HT
5014	1113	4	-0.8476	23.337601	19.3659	4.623902	#	OT
5015	1113	5	0.4238	23.1889	19.438601	5.610104	#	HT
5016	1113	5	0.4238	23.0047	20.194901	4.174603	#	HT
5017	1127	4	-0.8476	6.47425	27.953699	6.126602	#	OT
5018	1127	5	0.4238	5.73782	27.827999	6.791302	#	HT
5019	1127	5	0.4238	6.6021	27.1089	5.607102	#	HT
5020	1129	4	-0.8476	7.87116	4.20932	75.685105	#	OT
5021	1129	5	0.4238	7.50686	3.49335	76.281105	#	HT
5022	1129	5	0.4238	8.83068	4.01616	75.480103	#	HT
5023	1130	4	-0.8476	6.0974	27.477501	57.230705	#	OT
5024	1130	5	0.4238	5.32553	27.042999	56.766602	#	HT
5025	1130	5	0.4238	6.10851	28.454201	57.015999	#	HT
5026	1131	4	-0.8476	18.9613	14.9236	85.924103	#	OT
5027	1131	5	0.4238	18.2187	15.2321	86.518097	#	HT
5028	1131	5	0.4238	19.4753	15.7155	85.594101	#	HT
5029	1142	4	-0.8476	20.3335	0.058653	22.339104	#	OT
5030	1142	5	0.4238	20.2981	29.426001	23.335205	#	HT
5031	1142	5	0.4238	19.7087	28.842501	21.928601	#	HT
5032	1144	4	-0.8476	8.00723	14.4059	60.564102	#	OT
5033	1144	5	0.4238	7.99262	14.1746	59.591103	#	HT
5034	1144	5	0.4238	7.42383	15.2017	60.726105	#	HT
5035	1145	4	-0.8476	5.48688	26.2001	10.183403	#	OT
5036	1145	5	0.4238	4.89922	25.4368	10.451901	#	HT
5037	1145	5	0.4238	6.41614	25.8659	10.026001	#	HT
5038	1155	4	-0.8476	12.4225	22.946199	71.868103	#	OT
5039	1155	5	0.4238	12.6976	22.062099	72.246102	#	HT
5040	1155	5	0.4238	12.9991	23.166401	71.081101	#	HT
5041	1156	4	-0.8476	7.67527	25.7309	82.703102	#	OT
5042	1156	5	0.4238	8.45854	25.992399	83.267105	#	HT
5043	1156	5	0.4238	7.20943	24.9508	83.120102	#	HT
5044	1159	4	-0.8476	2.38473	11.7001	74.045105	#	OT
5045	1159	5	0.4238	2.44998	12.6409	74.378105	#	HT
5046	1159	5	0.4238	2.47504	11.6917	73.049103	#	HT
5047	1160	4	-0.8476	14.1178	14.2872	59.771103	#	OT
5048	1160	5	0.4238	14.5516	14.4547	60.656105	#	HT
5049	1160	5	0.4238	13.2725	14.8178	59.7081	#	HT
5050	1163	4	-0.8476	1.92752	25.2605	37.402001	#	OT
5051	1163	5	0.4238	1.04496	25.3657	36.943703	#	HT
5052	1163	5	0.4238	2.59254	24.8776	36.760803	#	HT
5053	1168	4	-0.8476	20.4125	13.6629	78.507103	#	OT
5054	1168	5	0.4238	20.9419	14.2326	79.136101	#	HT
5055	1168	5	0.4238	20.419901	14.0758	77.597099	#	HT
5056	1171	4	-0.8476	21.2866	29.2099	19.652203	#	OT
5057	1171	5	0.4238	20.4865	28.6222	19.772904	#	HT
5058	1171	5	0.4238	21.772301	28.9447	18.819302	#	HT
5059	1172	4	-0.8476	14.8821	17.440201	81.492104	#	OT
5060	1172	5	0.4238	13.955	17.7075	81.229103	#	HT
5061	1172	5	0.4238	15.5017	17.5825	80.720101	#	HT
5062	1175	4	-0.8476	22.796101	14.8713	5.151303	#	OT
5063	1175	5	0.4238	23.6549	14.4587	5.455002	#	HT
5064	1175	5	0.4238	22.174299	14.9579	5.929604	#	HT
5065	1177	4	-0.8476	3.02509	22.5627	25.644005	#	OT
5066	1177	5	0.4238	2.67934	23.4195	26.026505	#	HT
5067	1177	5	0.4238	3.45743	22.025	26.367905	#	HT
5068	1178	4	-0.8476	14.297	4.43794	11.757302	#	OT
5069	1178	5	0.4238	14.2444	4.9688	12.603203	#	HT
5070	1178	5	0.4238	14.5347	5.0436	10.997902	#	HT
5071	1196	4	-0.8476	25.479099	4.14407	18.215702	#	OT
5072	1196	5	0.4238	25.214001	4.38095	17.281002	#	HT
5073	1196	5	0.4238	0.435602	3.25573	18.216904	#	HT
5074	1205	4	-0.8476	0.867912	7.33453	1.423702	#	OT
5075	1205	5	0.4238	0.341513	7.70493	0.658402	#	HT
5076	1205	5	0.4238	0.300576	7.32983	2.2472	#	HT
5077	1212	4	-0.8476	1.42333	17.6084	44.939102	#	OT
5078	1212	5	0.4238	2.06582	17.384501	45.672005	#	HT
5079	1212	5	0.4238	1.18493	16.7759	44.439003	#	HT
5080	1214	4	-0.8476	20.804899	26.511499	3.846001	#	OT
5081	1214	5	0.4238	20.288601	27.359301	3.724701	#	HT
5082	1214	5	0.4238	21.2341	26.5089	4.749203	#	HT
5083	1219	4	-0.8476	3.48929	2.20915	64.487099	#	OT
5084	1219	5	0.4238	3.72896	1.51174	65.163101	#	HT
5085	1219	5	0.4238	2.69694	2.72705	64.810105	#	HT
5086	1220	4	-0.8476	13.483	14.6676	36.231705	#	OT
5087	1220	5	0.4238	14.1912	14.8546	36.912399	#	HT
5088	1220	5	0.4238	12.8943	15.47	36.134102	#	HT
5089	1222	4	-0.8476	7.97191	25.6266	56.533203	#	OT
5090	1222	5	0.4238	7.27605	26.3335	56.659805	#	HT
5091	1222	5	0.4238	7.55406	24.8179	56.119103	#	HT
5092	1232	4	-0.8476	13.7708	17.2344	12.857002	#	OT
5093	1232	5	0.4238	14.1553	16.354799	12.576702	#	HT
5094	1232	5	0.4238	12.7767	17.155199	12.930901	#	HT
5095	1235	4	-0.8476	10.0603	11.4065	76.752098	#	OT
5096	1235	5	0.4238	10.8125	10.9522	76.275101	#	HT
5097	1235	5	0.4238	10.04	12.3735	76.4981	#	HT
5098	1237	4	-0.8476	8.42774	18.7145	4.989601	#	OT
5099	1237	5	0.4238	7.73446	18.2878	4.408901	#	HT
5100	1237	5	0.4238	8.59894	19.647699	4.673401	#	HT
5101	1239	4	-0.8476	11.5103	0.643264	30.1194	#	OT
5102	1239	5	0.4238	10.8208	0.177429	30.674004	#	HT
5103	1239	5	0.4238	11.6186	0.162444	29.249298	#	HT
5104	1242	4	-0.8476	1.63133	22.469101	83.586106	#	OT
5105	1242	5	0.4238	2.43934	21.9464	83.314102	#	HT
5106	1242	5	0.4238	1.54918	22.4617	84.5831	#	HT
5107	1243	4	-0.8476	6.9819	22.117001	73.684105	#	OT
5108	1243	5	0.4238	6.0129	21.870001	73.691101	#	HT
5109	1243	5	0.4238	7.29863	22.2491	74.6241	#	HT
5110	1248	4	-0.8476	23.2679	14.9713	24.5662	#	OT
5111	1248	5	0.4238	23.373199	15.6939	25.249298	#	HT
5112	1248	5	0.4238	23.458599	14.0844	24.987099	#	HT
5113	1249	4	-0.8476	13.6802	0.590336	18.661503	#	OT
5114	1249	5	0.4238	12.8826	1.17493	18.810303	#	HT
5115	1249	5	0.4238	13.9262	0.602557	17.692303	#	HT
5116	1258	4	-0.8476	15.5303	8.8417	45.5233	#	OT
5117	1258	5	0.4238	15.0154	8.69334	46.3676	#	HT
5118	1258	5	0.4238	15.9091	7.97205	45.206703	#	HT
5119	1260	4	-0.8476	21.3545	0.193718	86.531098	#	OT
5120	1260	5	0.4238	20.4998	29.1374	86.409104	#	HT
5121	1260	5	0.4238	21.4478	0.462852	87.490097	#	HT
5122	1265	4	-0.8476	22.018499	17.754499	33.541504	#	OT
5123	1265	5	0.4238	21.0345	17.836399	33.700104	#	HT
5124	1265	5	0.4238	22.1824	17.5009	32.588204	#	HT
5125	1275	4	-0.8476	18.6521	15.3783	6.690003	#	OT
5126	1275	5	0.4238	19.3368	16.033001	6.369602	#	HT
5127	1275	5	0.4238	18.690001	14.5535	6.1259	#	HT
5128	1280	4	-0.8476	8.51378	17.2586	31.309403	#	OT
5129	1280	5	0.4238	7.94245	16.458599	31.492806	#	HT
5130	1280	5	0.4238	7.99936	17.916599	30.759499	#	HT
5131	1281	4	-0.8476	5.75635	12.0736	79.812103	#	OT
5132	1281	5	0.4238	5.45238	12.3331	80.729103	#	HT
5133	1281	5	0.4238	5.02355	11.5781	79.3461	#	HT
5134	1283	4	-0.8476	24.0355	7.79012	68.384102	#	OT
5135	1283	5	0.4238	24.2094	8.26776	69.246102	#	HT
5136	1283	5	0.4238	23.8374	6.82787	68.571099	#	HT
5137	1286	4	-0.8476	4.2383	6.07404	73.337105	#	OT
5138	1286	5	0.4238	4.20121	6.67492	74.136101	#	HT
5139	1286	5	0.4238	5.06846	5.51792	73.377098	#	HT
5140	1292	4	-0.8476	20.1509	28.5644	59.355103	#	OT
5141	1292	5	0.4238	19.2565	28.8745	59.677101	#	HT
5142	1292	5	0.4238	20.5921	28.0203	60.0691	#	HT
5143	1293	4	-0.8476	23.4704	24.911699	81.816101	#	OT
5144	1293	5	0.4238	23.9967	24.2521	81.280106	#	HT
5145	1293	5	0.4238	23.1791	25.6646	81.226105	#	HT
5146	1298	4	-0.8476	10.1166	23.5875	11.195301	#	OT
5147	1298	5	0.4238	10.0764	23.0301	10.366001	#	HT
5148	1298	5	0.4238	9.59986	23.138399	11.924202	#	HT
5149	1299	4	-0.8476	19.1243	8.97283	15.064102	#	OT
5150	1299	5	0.4238	18.246799	9.11688	14.606701	#	HT
5151	1299	5	0.4238	19.852501	8.92405	14.380501	#	HT
5152	1300	4	-0.8476	24.5026	13.5764	16.414601	#	OT
5153	1300	5	0.4238	23.9704	13.752	15.586403	#	HT
5154	1300	5	0.4238	24.976299	12.7001	16.326901	#	HT
5155	1301	4	-0.8476	9.25437	19.671499	78.4011	#	OT
5156	1301	5	0.4238	8.3839	19.183701	78.467102	#	HT
5157	1301	5	0.4238	9.56299	19.6756	77.450104	#	HT
5158	1302	4	-0.8476	24.3097	0.132297	68.852104	#	OT
5159	1302	5	0.4238	24.2985	0.846963	68.153099	#	HT
5160	1302	5	0.4238	25.2362	29.214399	68.940102	#	HT
5161	1303	4	-0.8476	10.9303	11.922	60.9021	#	OT
5162	1303	5	0.4238	9.93714	11.8735	60.796105	#	HT
5163	1303	5	0.4238	11.2927	11.0054	61.071099	#	HT
5164	1304	4	-0.8476	22.466101	29.076099	84.115105	#	OT
5165	1304	5	0.4238	22.0968	0.063006	84.936104	#	HT
5166	1304	5	0.4238	23.465	29.0716	84.160103	#	HT
5167	1305	4	-0.8476	23.270599	23.4599	60.324105	#	OT
5168	1305	5	0.4238	22.427299	22.9312	60.420105	#	HT
5169	1305	5	0.4238	23.1562	24.1411	59.601105	#	HT
5170	1306	4	-0.8476	9.34857	12.1823	19.515801	#	OT
5171	1306	5	0.4238	8.46209	12.2044	19.978001	#	HT
5172	1306	5	0.4238	9.40279	12.9374	18.862503	#	HT
5173	1307	4	-0.8476	18.740101	21.153	69.886101	#	OT
5174	1307	5	0.4238	19.1028	20.6451	69.105103	#	HT
5175	1307	5	0.4238	19.233	20.886801	70.715103	#	HT
5176	1308	4	-0.8476	8.98658	8.57754	44.8125	#	OT
5177	1308	5	0.4238	9.105	8.03027	45.641098	#	HT
5178	1308	5	0.4238	8.18751	9.16987	44.915703	#	HT
5179	1309	4	-0.8476	25.1385	13.7977	58.328102	#	OT
5180	1309	5	0.4238	24.966101	14.7688	58.493103	#	HT
5181	1309	5	0.4238	0.584327	13.6723	58.037102	#	HT
5182	1310	4	-0.8476	5.76794	0.173647	65.289101	#	OT
5183	1310	5	0.4238	5.61689	0.437558	66.242104	#	HT
5184	1310	5	0.4238	6.74712	0.048797	65.129105	#	HT
5185	1311	4	-0.8476	0.97483	23.8328	72.8321	#	OT
5186	1311	5	0.4238	1.70771	23.2523	73.187103	#	HT
5187	1311	5	0.4238	0.781083	24.562901	73.488098	#	HT
5188	1312	4	-0.8476	4.46786	16.7593	58.008805	#	OT
5189	1312	5	0.4238	4.90651	15.9084	57.719704	#	HT
5190	1312	5	0.4238	4.72213	17.4953	57.381401	#	HT
5191	1313	4	-0.8476	11.9459	9.29002	61.0261	#	OT
5192	1313	5	0.4238	12.2609	9.39995	61.968102	#	HT
5193	1313	5	0.4238	11.1668	8.66348	61.005104	#	HT
5194	1314	4	-0.8476	7.75422	20.4886	55.671601	#	OT
5195	1314	5	0.4238	7.29446	21.3277	55.962601	#	HT
5196	1314	5	0.4238	7.58627	19.7666	56.342804	#	HT
5197	1315	4	-0.8476	11.4911	11.4083	84.856102	#	OT
5198	1315	5	0.4238	12.4272	11.071	84.757103	#	HT
5199	1315	5	0.4238	11.335	12.1537	84.2081	#	HT
5200	1316	4	-0.8476	7.0803	19.0546	74.952103	#	OT
5201	1316	5	0.4238	6.81495	19.9855	75.203102	#	HT
5202	1316	5	0.4238	6.91884	18.913799	73.975105	#	HT
5203	1317	4	-0.8476	23.271999	9.16169	63.922104	#	OT
5204	1317	5	0.4238	23.613899	8.24288	63.725105	#	HT
5205	1317	5	0.4238	23.123899	9.25807	64.906105	#	HT
5206	1318	4	-0.8476	14.4798	9.58637	50.6754	#	OT
5207	1318	5	0.4238	15.4559	9.46078	50.4981	#	HT
5208	1318	5	0.4238	14.3002	9.46657	51.651802	#	HT
5209	1319	4	-0.8476	1.4865	3.77615	65.231102	#	OT
5210	1319	5	0.4238	0.700276	3.2803	65.599098	#	HT
5211	1319	5	0.4238	1.84713	4.39532	65.928101	#	HT
5212	1320	4	-0.8476	18.5438	9.94233	83.434105	#	OT
5213	1320	5	0.4238	18.8997	10.0408	84.364105	#	HT
5214	1320	5	0.4238	18.673599	8.99997	83.126099	#	HT
5215	1321	4	-0.8476	17.5895	3.20023	56.691002	#	OT
5216	1321	5	0.4238	17.288799	4.11702	56.4282	#	HT
5217	1321	5	0.4238	18.3874	2.94225	56.146301	#	HT
5218	1322	4	-0.8476	2.32291	1.08987	80.521103	#	OT
5219	1322	5	0.4238	1.65194	0.774273	81.192101	#	HT
5220	1322	5	0.4238	1.94268	0.997823	79.600105	#	HT
5221	1323	4	-0.8476	0.303742	17.816	48.910599	#	OT
5222	1323	5	0.4238	1.20665	18.1499	48.64	#	HT
5223	1323	5	0.4238	25.459499	18.369499	49.667702	#	HT
5224	1324	4	-0.8476	9.96599	10.7451	36.486199	#	OT
5225	1324	5	0.4238	10.8416	11.2161	36.379502	#	HT
5226	1324	5	0.4238	10.0882	9.94254	37.070099	#	HT
5227	1325	4	-0.8476	23.5485	4.04616	65.289101	#	OT
5228	1325	5	0.4238	22.6134	4.2688	65.564102	#	HT
5229	1325	5	0.4238	23.582399	3.91891	64.297104	#	HT
5230	1326	4	-0.8476	17.6632	7.7805	66.988098	#	OT
5231	1326	5	0.4238	17.377501	7.6983	67.942101	#	HT
5232	1326	5	0.4238	16.8554	7.80276	66.399101	#	HT
5233	1327	4	-0.8476	13.69	16.666901	68.9581	#	OT
5234	1327	5	0.4238	13.4259	17.3797	68.308106	#	HT
5235	1327	5	0.4238	13.5607	17.002001	69.891098	#	HT
5236	1328	4	-0.8476	7.44396	15.0669	6.857201	#	OT
5237	1328	5	0.4238	8.04091	14.3471	7.211403	#	HT
5238	1328	5	0.4238	7.42711	15.0244	5.8582	#	HT
5239	1329	4	-0.8476	12.3428	3.40198	1.600502	#	OT
5240	1329	5	0.4238	12.234	2.47503	1.241501	#	HT
5241	1329	5	0.4238	12.8418	3.95988	0.937401	#	HT
5242	1330	4	-0.8476	12.2429	3.33636	71.1241	#	OT
5243	1330	5	0.4238	12.8064	3.84793	71.772103	#	HT
5244	1330	5	0.4238	11.2782	3.44172	71.365105	#	HT
5245	1331	4	-0.8476	14.5951	13.8598	80.5271	#	OT
5246	1331	5	0.4238	14.4936	14.3735	79.675102	#	HT
5247	1331	5	0.4238	14.0136	14.2653	81.232102	#	HT
5248	1332	4	-0.8476	6.34342	25.1579	73.320099	#	OT
5249	1332	5	0.4238	7.3412	25.128099	73.379105	#	HT
5250	1332	5	0.4238	5.9484	24.670099	74.098099	#	HT
5251	1333	4	-0.8476	11.075	19.9107	61.215103	#	OT
5252	1333	5	0.4238	10.8282	19.4074	60.3871	#	HT
5253	1333	5	0.4238	10.5518	20.761999	61.256104	#	HT
5254	1334	4	-0.8476	11.8078	24.135401	52.649605	#	OT
5255	1334	5	0.4238	11.5543	24.4701	53.557205	#	HT
5256	1334	5	0.4238	12.7802	23.902	52.64	#	HT
5257	1335	4	-0.8476	24.2269	15.5626	74.246102	#	OT
5258	1335	5	0.4238	24.539	16.1658	73.5121	#	HT
5259	1335	5	0.4238	24.632401	15.8542	75.112099	#	HT
5260	1336	4	-0.8476	13.9316	9.42332	59.302101	#	OT
5261	1336	5	0.4238	13.0769	9.42639	59.821099	#	HT
5262	1336	5	0.4238	14.1219	8.49634	58.979103	#	HT
5263	1337	4	-0.8476	19.4387	28.1243	78.163101	#	OT
5264	1337	5	0.4238	18.958	27.2537	78.268105	#	HT
5265	1337	5	0.4238	19.060301	28.7934	78.802101	#	HT
5266	1338	4	-0.8476	23.587601	23.8276	11.3204	#	OT
5267	1338	5	0.4238	24.3218	23.770201	10.643902	#	HT
5268	1338	5	0.4238	22.8333	23.2316	11.045002	#	HT
5269	1339	4	-0.8476	7.47008	12.3131	83.535103	#	OT
5270	1339	5	0.4238	7.52725	11.4424	83.046105	#	HT
5271	1339	5	0.4238	6.52336	12.4788	83.811104	#	HT
5272	1340	4	-0.8476	18.390699	14.8953	66.965103	#	OT
5273	1340	5	0.4238	17.511299	14.5001	67.230103	#	HT
5274	1340	5	0.4238	18.432501	15.8479	67.266098	#	HT
5275	1341	4	-0.8476	7.96661	7.14179	36.979401	#	OT
5276	1341	5	0.4238	8.87896	7.28946	37.361305	#	HT
5277	1341	5	0.4238	7.99163	6.36859	36.345803	#	HT
5278	1342	4	-0.8476	24.1381	2.73341	53.397103	#	OT
5279	1342	5	0.4238	24.927799	2.97157	52.831803	#	HT
5280	1342	5	0.4238	23.747499	1.87012	53.0775	#	HT
5281	1343	4	-0.8476	5.97085	5.40833	68.829102	#	OT
5282	1343	5	0.4238	5.53471	6.17091	68.351105	#	HT
5283	1343	5	0.4238	6.95565	5.57162	68.8881	#	HT
5284	1344	4	-0.8476	22.874599	12.1135	79.185105	#	OT
5285	1344	5	0.4238	22.0145	12.5257	78.885102	#	HT
5286	1344	5	0.4238	23.0746	11.3115	78.622101	#	HT
5287	1345	4	-0.8476	15.5747	25.527201	6.8624	#	OT
5288	1345	5	0.4238	15.5236	26.4601	6.505902	#	HT
5289	1345	5	0.4238	15.3423	25.5289	7.835003	#	HT
5290	1346	4	-0.8476	13.9069	6.45804	13.598801	#	OT
5291	1346	5	0.4238	13.1582	6.71327	14.210602	#	HT
5292	1346	5	0.4238	14.7174	7.00059	13.819603	#	HT
5293	1347	4	-0.8476	15.5966	15.3493	82.925102	#	OT
5294	1347	5	0.4238	16.3552	14.925	82.4301	#	HT
5295	1347	5	0.4238	15.0959	15.9575	82.309105	#	HT
5296	1348	4	-0.8476	22.3139	24.091	84.222099	#	OT
5297	1348	5	0.4238	22.645599	24.035	83.280106	#	HT
5298	1348	5	0.4238	22.379299	25.0359	84.542099	#	HT
5299	1349	4	-0.8476	17.892599	2.7944	65.781105	#	OT
5300	1349	5	0.4238	18.6724	2.85199	65.157105	#	HT
5301	1349	5	0.4238	17.4974	1.87685	65.736099	#	HT
5302	1350	4	-0.8476	11.5847	19.782101	48.958702	#	OT
5303	1350	5	0.4238	11.0298	20.060801	48.174805	#	HT
5304	1350	5	0.4238	11.0671	19.927401	49.801903	#	HT
5305	1351	4	-0.8476	6.99802	24.2337	61.424103	#	OT
5306	1351	5	0.4238	6.26721	24.6849	61.936104	#	HT
5307	1351	5	0.4238	7.73428	24.887199	61.2481	#	HT
5308	1352	4	-0.8476	23.304899	6.60012	77.392105	#	OT
5309	1352	5	0.4238	23.806601	5.92383	77.931099	#	HT
5310	1352	5	0.4238	23.688	6.64119	76.469101	#	HT
5311	1353	4	-0.8476	16.2834	27.801901	61.7631	#	OT
5312	1353	5	0.4238	16.3048	27.1661	60.992104	#	HT
5313	1353	5	0.4238	16.33	27.2882	62.620102	#	HT
5314	1354	4	-0.8476	24.594	6.77648	63.883103	#	OT
5315	1354	5	0.4238	24.4524	6.09158	64.598099	#	HT
5316	1354	5	0.4238	0.044012	6.75033	63.580101	#	HT
5317	1355	4	-0.8476	16.188101	6.79527	50.079498	#	OT
5318	1355	5	0.4238	15.3728	6.82264	50.657906	#	HT
5319	1355	5	0.4238	16.855801	6.16422	50.474304	#	HT
5320	1356	4	-0.8476	1.32446	14.9918	10.198002	#	OT
5321	1356	5	0.4238	2.26885	15.016	10.525902	#	HT
5322	1356	5	0.4238	1.31859	14.9982	9.198002	#	HT
5323	1357	4	-0.8476	24.732599	8.71394	70.938103	#	OT
5324	1357	5	0.4238	0.15114	8.33088	70.871102	#	HT
5325	1357	5	0.4238	24.194599	8.17661	71.588104	#	HT
5326	1358	4	-0.8476	19.1819	27.8873	86.702103	#	OT
5327	1358	5	0.4238	18.551399	27.682899	85.953102	#	HT
5328	1358	5	0.4238	18.7309	27.7066	87.576096	#	HT
5329	1359	4	-0.8476	4.2347	13.5886	48.118103	#	OT
5330	1359	5	0.4238	4.10506	14.0725	48.983505	#	HT
5331	1359	5	0.4238	4.869	12.8274	48.253601	#	HT
5332	1360	4	-0.8476	2.8067	12.6811	65.740105	#	OT
5333	1360	5	0.4238	2.04543	12.0476	65.602104	#	HT
5334	1360	5	0.4238	2.9732	12.7937	66.720101	#	HT
5335	1361	4	-0.8476	14.9637	18.9758	62.060105	#	OT
5336	1361	5	0.4238	15.4057	19.401699	61.270104	#	HT
5337	1361	5	0.4238	14.5428	18.1127	61.781105	#	HT
5338	1362	4	-0.8476	12.5797	23.1639	40.154801	#	OT
5339	1362	5	0.4238	11.8678	23.304899	39.466904	#	HT
5340	1362	5	0.4238	13.4502	23.5159	39.8106	#	HT
5341	1363	4	-0.8476	18.8643	17.3536	68.066101	#	OT
5342	1363	5	0.4238	19.4202	16.9517	68.794106	#	HT
5343	1363	5	0.4238	19.16	18.294701	67.9021	#	HT
5344	1364	4	-0.8476	9.86075	19.7556	54.333199	#	OT
5345	1364	5	0.4238	9.08229	19.8367	54.955605	#	HT
5346	1364	5	0.4238	10.6625	20.1898	54.743904	#	HT
5347	1365	4	-0.8476	25.1649	12.8334	22.599701	#	OT
5348	1365	5	0.4238	25.2463	13.7665	22.249298	#	HT
5349	1365	5	0.4238	25.1656	12.8516	23.599602	#	HT
5350	1366	4	-0.8476	23.2066	18.428499	76.673104	#	OT
5351	1366	5	0.4238	23.741301	19.0893	76.146103	#	HT
5352	1366	5	0.4238	22.2908	18.350901	76.278099	#	HT
5353	1367	4	-0.8476	14.8273	24.821699	65.718102	#	OT
5354	1367	5	0.4238	13.989	25.365299	65.759102	#	HT
5355	1367	5	0.4238	15.607	25.3916	65.978104	#	HT
5356	1368	4	-0.8476	2.49555	13.366	58.356102	#	OT
5357	1368	5	0.4238	2.5836	13.0139	57.424401	#	HT
5358	1368	5	0.4238	2.98032	14.2375	58.4301	#	HT
5359	1369	4	-0.8476	5.92292	7.94812	81.728104	#	OT
5360	1369	5	0.4238	6.00579	7.25103	82.441101	#	HT
5361	1369	5	0.4238	6.65321	8.62277	81.836106	#	HT
5362	1370	4	-0.8476	4.06195	15.109	71.7911	#	OT
5363	1370	5	0.4238	4.66724	14.3225	71.914101	#	HT
5364	1370	5	0.4238	3.11132	14.7989	71.7771	#	HT
5365	1371	4	-0.8476	0.848674	8.39801	23.961899	#	OT
5366	1371	5	0.4238	25.4722	8.70669	23.5989	#	HT
5367	1371	5	0.4238	1.58713	8.92091	23.536202	#	HT
5368	1372	4	-0.8476	23.7796	25.2208	62.390099	#	OT
5369	1372	5	0.4238	22.9909	25.834999	62.417099	#	HT
5370	1372	5	0.4238	23.7365	24.659599	61.563103	#	HT
5371	1373	4	-0.8476	12.6576	20.7698	26.366303	#	OT
5372	1373	5	0.4238	13.1923	20.071699	25.890206	#	HT
5373	1373	5	0.4238	12.7181	21.6341	25.867005	#	HT
5374	1374	4	-0.8476	4.80679	2.12016	62.157105	#	OT
5375	1374	5	0.4238	4.36742	1.76627	61.331101	#	HT
5376	1374	5	0.4238	4.24503	1.89933	62.954102	#	HT
5377	1375	4	-0.8476	11.1215	11.0478	66.886101	#	OT
5378	1375	5	0.4238	11.0853	11.6374	67.6931	#	HT
5379	1375	5	0.4238	11.0379	11.6065	66.061104	#	HT
5380	1376	4	-0.8476	2.21913	20.1264	66.9301	#	OT
5381	1376	5	0.4238	2.32245	20.6387	67.783104	#	HT
5382	1376	5	0.4238	2.93959	20.3946	66.2911	#	HT
5383	1377	4	-0.8476	17.152901	2.22446	72.797104	#	OT
5384	1377	5	0.4238	18.0734	2.22284	73.188103	#	HT
5385	1377	5	0.4238	17.1814	1.83733	71.876099	#	HT
5386	1378	4	-0.8476	15.2984	8.31129	5.832302	#	OT
5387	1378	5	0.4238	14.3581	8.38959	5.501103	#	HT
5388	1378	5	0.4238	15.8831	8.94762	5.329102	#	HT
5389	1379	4	-0.8476	0.211582	18.8629	62.809105	#	OT
5390	1379	5	0.4238	0.172758	19.4799	63.595101	#	HT
5391	1379	5	0.4238	24.955299	18.213499	62.857102	#	HT
5392	1380	4	-0.8476	16.5835	5.26512	82.9991	#	OT
5393	1380	5	0.4238	16.3452	4.294	82.987099	#	HT
5394	1380	5	0.4238	17.4737	5.38427	83.439102	#	HT
5395	1381	4	-0.8476	12.5736	6.78278	70.928101	#	OT
5396	1381	5	0.4238	13.3023	6.84508	70.246102	#	HT
5397	1381	5	0.4238	12.0846	7.6539	70.974098	#	HT
5398	1382	4	-0.8476	0.288218	13.5905	84.375099	#	OT
5399	1382	5	0.4238	0.37044	14.4449	84.8881	#	HT
5400	1382	5	0.4238	24.824699	13.3518	84.2771	#	HT
5401	1383	4	-0.8476	25.0846	10.7081	1.283203	#	OT
5402	1383	5	0.4238	25.4578	10.52	2.1917	#	HT
5403	1383	5	0.4238	24.5492	9.92236	0.973602	#	HT
5404	1384	4	-0.8476	7.46607	15.8512	69.340103	#	OT
5405	1384	5	0.4238	7.96089	16.068001	70.182099	#	HT
5406	1384	5	0.4238	6.8886	16.6264	69.084099	#	HT
5407	1385	4	-0.8476	14.9176	3.99096	72.090103	#	OT
5408	1385	5	0.4238	15.5213	4.7454	71.8321	#	HT
5409	1385	5	0.4238	15.4014	3.37408	72.711106	#	HT
5410	1386	4	-0.8476	9.91299	16.9874	70.983101	#	OT
5411	1386	5	0.4238	10.2346	16.8088	70.053101	#	HT
5412	1386	5	0.4238	9.88808	17.9741	71.144104	#	HT
5413	1387	4	-0.8476	12.1157	25.893999	65.283104	#	OT
5414	1387	5	0.4238	11.4954	26.005699	64.507103	#	HT
5415	1387	5	0.4238	11.7558	26.3927	66.072106	#	HT
5416	1388	4	-0.8476	23.702	18.653	28.113899	#	OT
5417	1388	5	0.4238	22.9055	19.211201	28.3461	#	HT
5418	1388	5	0.4238	24.3232	19.182699	27.536202	#	HT
5419	1389	4	-0.8476	2.15779	4.86137	82.969101	#	OT
5420	1389	5	0.4238	2.01917	5.36276	83.823105	#	HT
5421	1389	5	0.4238	1.34479	4.3151	82.767105	#	HT
5422	1390	4	-0.8476	4.38163	28.4373	63.355103	#	OT
5423	1390	5	0.4238	4.99868	29.0271	63.876099	#	HT
5424	1390	5	0.4238	4.49417	28.6175	62.378105	#	HT
5425	1391	4	-0.8476	13.4612	6.71384	51.078499	#	OT
5426	1391	5	0.4238	13.2859	6.6483	50.096199	#	HT
5427	1391	5	0.4238	12.6911	7.16953	51.524903	#	HT
5428	1392	4	-0.8476	1.4099	18.0383	36.229302	#	OT
5429	1392	5	0.4238	2.25993	18.1108	35.707604	#	HT
5430	1392	5	0.4238	0.785157	18.768101	35.951698	#	HT
5431	1393	4	-0.8476	16.8232	0.443228	64.975105	#	OT
5432	1393	5	0.4238	16.149099	0.549702	64.244103	#	HT
5433	1393	5	0.4238	16.3972	29.4375	65.758103	#	HT
5434	1394	4	-0.8476	8.2462	17.507601	60.843102	#	OT
5435	1394	5	0.4238	8.67789	17.8363	60.003105	#	HT
5436	1394	5	0.4238	7.67822	18.233	61.231102	#	HT
5437	1395	4	-0.8476	4.4718	2.59923	73.104103	#	OT
5438	1395	5	0.4238	3.66396	2.23929	73.571099	#	HT
5439	1395	5	0.4238	4.48887	2.26503	72.162102	#	HT
5440	1396	4	-0.8476	3.07396	27.597601	36.295502	#	OT
5441	1396	5	0.4238	2.6663	28.5047	36.400299	#	HT
5442	1396	5	0.4238	2.5077	26.921301	36.766602	#	HT
5443	1397	4	-0.8476	10.7699	19.6276	80.628105	#	OT
5444	1397	5	0.4238	10.1359	19.739	79.863098	#	HT
5445	1397	5	0.4238	10.2556	19.5945	81.4851	#	HT
5446	1398	4	-0.8476	6.57512	4.55002	73.303101	#	OT
5447	1398	5	0.4238	5.8242	3.911	73.136101	#	HT
5448	1398	5	0.4238	7.02934	4.3138	74.162102	#	HT
5449	1399	4	-0.8476	4.71884	1.51725	59.108101	#	OT
5450	1399	5	0.4238	5.3822	2.22766	59.343102	#	HT
5451	1399	5	0.4238	4.70924	1.38506	58.117203	#	HT
5452	1400	4	-0.8476	21.716999	10.6046	18.663601	#	OT
5453	1400	5	0.4238	21.9056	9.92522	19.372704	#	HT
5454	1400	5	0.4238	21.3808	10.1442	17.842003	#	HT
5455	1401	4	-0.8476	23.7169	0.33101	49.923302	#	OT
5456	1401	5	0.4238	24.5665	0.283695	49.398003	#	HT
5457	1401	5	0.4238	23.0826	0.960948	49.475105	#	HT
5458	1402	4	-0.8476	11.9642	11.7331	44.899399	#	OT
5459	1402	5	0.4238	12.2315	12.6966	44.883003	#	HT
5460	1402	5	0.4238	11.8376	11.4384	45.846604	#	HT
5461	1403	4	-0.8476	0.921525	25.1761	41.809204	#	OT
5462	1403	5	0.4238	0.739308	24.240499	42.111702	#	HT
5463	1403	5	0.4238	1.36341	25.684999	42.547905	#	HT
5464	1404	4	-0.8476	0.603606	2.19551	10.203102	#	OT
5465	1404	5	0.4238	1.10929	1.50621	9.684303	#	HT
5466	1404	5	0.4238	25.177601	2.27102	9.84	#	HT
5467	1405	4	-0.8476	17.934299	26.3552	0.872303	#	OT
5468	1405	5	0.4238	17.659401	25.7589	1.626503	#	HT
5469	1405	5	0.4238	18.9184	26.2659	0.718403	#	HT
5470	1406	4	-0.8476	23.077499	0.485022	52.370003	#	OT
5471	1406	5	0.4238	22.906099	28.9869	52.644905	#	HT
5472	1406	5	0.4238	23.331499	0.510458	51.403198	#	HT
5473	1407	4	-0.8476	5.61643	9.13178	1.700802	#	OT
5474	1407	5	0.4238	4.87579	8.57592	1.323403	#	HT
5475	1407	5	0.4238	6.49658	8.75253	1.415402	#	HT
5476	1408	4	-0.8476	9.28627	5.43631	58.092102	#	OT
5477	1408	5	0.4238	9.29374	4.8801	57.261101	#	HT
5478	1408	5	0.4238	8.34111	5.60566	58.371102	#	HT
5479	1409	4	-0.8476	25.0042	4.3785	71.300102	#	OT
5480	1409	5	0.4238	24.509399	3.76197	71.913101	#	HT
5481	1409	5	0.4238	0.484542	4.28891	71.460098	#	HT
5482	1410	4	-0.8476	10.1144	20.9835	46.902405	#	OT
5483	1410	5	0.4238	9.58489	21.761499	47.240601	#	HT
5484	1410	5	0.4238	11.0051	21.3022	46.578301	#	HT
5485	1411	4	-0.8476	21.716	27.9464	76.9851	#	OT
5486	1411	5	0.4238	22.2866	27.332199	77.530106	#	HT
5487	1411	5	0.4238	20.823099	28.0487	77.424103	#	HT
5488	1412	4	-0.8476	0.852998	12.9386	76.8041	#	OT
5489	1412	5	0.4238	1.29233	13.4124	77.5681	#	HT
5490	1412	5	0.4238	1.21028	13.2946	75.941101	#	HT
5491	1413	4	-0.8476	0.581707	16.549601	75.8461	#	OT
5492	1413	5	0.4238	0.71401	16.569099	76.837105	#	HT
5493	1413	5	0.4238	1.42917	16.823299	75.392105	#	HT
5494	1414	4	-0.8476	4.19883	12.9799	41.529503	#	OT
5495	1414	5	0.4238	3.55134	12.5333	42.147003	#	HT
5496	1414	5	0.4238	5.11265	12.6001	41.673203	#	HT
5497	1415	4	-0.8476	23.338499	17.185801	36.318802	#	OT
5498	1415	5	0.4238	22.698999	17.868299	36.672905	#	HT
5499	1415	5	0.4238	22.9289	16.2764	36.390701	#	HT
5500	1416	4	-0.8476	6.88569	24.834299	70.4851	#	OT
5501	1416	5	0.4238	6.29009	24.257601	69.926102	#	HT
5502	1416	5	0.4238	6.51838	24.8915	71.413101	#	HT
5503	1417	4	-0.8476	7.50171	17.4554	78.271103	#	OT
5504	1417	5	0.4238	6.79748	17.841499	77.675102	#	HT
5505	1417	5	0.4238	7.55039	16.466299	78.132103	#	HT
5506	1418	4	-0.8476	12.84	25.6422	86.307099	#	OT
5507	1418	5	0.4238	13.8268	25.6513	86.469101	#	HT
5508	1418	5	0.4238	12.5614	24.733101	85.997101	#	HT
5509	1419	4	-0.8476	14.0994	19.434999	22.534401	#	OT
5510	1419	5	0.4238	14.1153	20.4219	22.694901	#	HT
5511	1419	5	0.4238	13.1658	19.1469	22.320999	#	HT
5512	1420	4	-0.8476	5.78734	11.8913	64.454102	#	OT
5513	1420	5	0.4238	6.57796	11.9573	63.845101	#	HT
5514	1420	5	0.4238	5.19065	12.6811	64.312103	#	HT
5515	1421	4	-0.8476	17.6775	4.27711	26.404701	#	OT
5516	1421	5	0.4238	17.9163	3.5505	25.760399	#	HT
5517	1421	5	0.4238	16.919399	4.81439	26.035004	#	HT
5518	1422	4	-0.8476	9.46138	0.323815	62.108101	#	OT
5519	1422	5	0.4238	8.71413	0.033129	61.511101	#	HT
5520	1422	5	0.4238	10.1696	29.066	62.1241	#	HT
5521	1423	4	-0.8476	15.7031	0.239433	68.913101	#	OT
5522	1423	5	0.4238	15.159	29.400999	69.702103	#	HT
5523	1423	5	0.4238	16.341101	0.957398	69.192101	#	HT
5524	1424	4	-0.8476	24.526199	7.23338	20.779103	#	OT
5525	1424	5	0.4238	23.8099	7.92951	20.8274	#	HT
5526	1424	5	0.4238	24.1071	6.32742	20.719502	#	HT
5527	1425	4	-0.8476	24.657801	0.107793	24.661301	#	OT
5528	1425	5	0.4238	0.001136	0.556478	24.949303	#	HT
5529	1425	5	0.4238	24.837099	28.992599	23.854599	#	HT
5530	1426	4	-0.8476	23.0021	21.1506	69.920105	#	OT
5531	1426	5	0.4238	22.971901	21.3643	70.896103	#	HT
5532	1426	5	0.4238	23.2337	21.976	69.405106	#	HT
5533	1427	4	-0.8476	3.4062	13.821	68.358101	#	OT
5534	1427	5	0.4238	3.83839	13.6834	69.2491	#	HT
5535	1427	5	0.4238	3.95336	14.4599	67.817101	#	HT
5536	1428	4	-0.8476	23.782	26.9074	50.8536	#	OT
5537	1428	5	0.4238	23.2185	26.692801	50.055802	#	HT
5538	1428	5	0.4238	24.100201	27.853399	50.792198	#	HT
5539	1429	4	-0.8476	15.9397	4.97061	86.031105	#	OT
5540	1429	5	0.4238	15.1423	4.53707	86.451096	#	HT
5541	1429	5	0.4238	16.2519	4.4174	85.259102	#	HT
5542	1430	4	-0.8476	16.664801	1.72939	85.229103	#	OT
5543	1430	5	0.4238	16.2061	2.20155	84.476105	#	HT
5544	1430	5	0.4238	16.008101	1.14422	85.705101	#	HT
5545	1431	4	-0.8476	22.135799	18.6329	71.045105	#	OT
5546	1431	5	0.4238	21.5382	18.825199	71.823105	#	HT
5547	1431	5	0.4238	22.341101	19.485201	70.564102	#	HT
5548	1432	4	-0.8476	23.678801	6.83376	72.505104	#	OT
5549	1432	5	0.4238	24.1549	6.06431	72.080101	#	HT
5550	1432	5	0.4238	22.691299	6.68686	72.449105	#	HT
5551	1433	4	-0.8476	15.8655	24.517599	41.346802	#	OT
5552	1433	5	0.4238	15.7341	24.701	40.372505	#	HT
5553	1433	5	0.4238	16.1504	23.5672	41.471504	#	HT
5554	1434	4	-0.8476	20.6887	4.45503	86.528107	#	OT
5555	1434	5	0.4238	21.117599	3.64429	86.130104	#	HT
5556	1434	5	0.4238	19.771	4.22246	86.850098	#	HT
5557	1435	4	-0.8476	6.50887	19.986799	64.273102	#	OT
5558	1435	5	0.4238	7.23257	20.521	64.710098	#	HT
5559	1435	5	0.4238	6.56324	19.0371	64.5821	#	HT
5560	1436	4	-0.8476	3.22627	27.235701	86.235108	#	OT
5561	1436	5	0.4238	3.15462	27.917999	86.963104	#	HT
5562	1436	5	0.4238	3.0051	27.660299	85.357102	#	HT
5563	1437	4	-0.8476	21.7626	14.6471	42.369705	#	OT
5564	1437	5	0.4238	22.749399	14.4865	42.389603	#	HT
5565	1437	5	0.4238	21.5257	15.1648	41.547501	#	HT
5566	1438	4	-0.8476	25.218599	9.73824	36.036102	#	OT
5567	1438	5	0.4238	0.408065	9.02583	35.920304	#	HT
5568	1438	5	0.4238	25.415701	10.263	36.864205	#	HT
5569	1439	4	-0.8476	15.3115	17.048901	59.744103	#	OT
5570	1439	5	0.4238	14.8097	16.208	59.946099	#	HT
5571	1439	5	0.4238	16.1348	17.0905	60.310105	#	HT
5572	1440	4	-0.8476	21.7652	15.3486	79.689102	#	OT
5573	1440	5	0.4238	21.1077	15.9573	80.133103	#	HT
5574	1440	5	0.4238	22.677799	15.5138	80.063103	#	HT
5575	1441	4	-0.8476	7.53678	26.787701	18.542103	#	OT
5576	1441	5	0.4238	8.44561	26.375299	18.479504	#	HT
5577	1441	5	0.4238	7.4363	27.482599	17.830101	#	HT
5578	1442	4	-0.8476	5.58503	8.24722	36.696404	#	OT
5579	1442	5	0.4238	6.46147	7.79636	36.865502	#	HT
5580	1442	5	0.4238	4.94548	8.01848	37.430306	#	HT
5581	1443	4	-0.8476	18.3426	27.258499	82.062103	#	OT
5582	1443	5	0.4238	18.8423	26.589899	81.511101	#	HT
5583	1443	5	0.4238	18.1583	28.0728	81.511101	#	HT
5584	1444	4	-0.8476	1.80539	7.68031	5.232201	#	OT
5585	1444	5	0.4238	1.00941	7.51757	4.649201	#	HT
5586	1444	5	0.4238	1.83446	8.64472	5.495003	#	HT
5587	1445	4	-0.8476	17.3043	12.7072	86.135102	#	OT
5588	1445	5	0.4238	18.1744	13.111	86.418106	#	HT
5589	1445	5	0.4238	17.2313	12.737	85.1381	#	HT
5590	1446	4	-0.8476	10.2266	0.366238	86.78711	#	OT
5591	1446	5	0.4238	9.42974	29.2201	86.897095	#	HT
5592	1446	5	0.4238	11.0409	29.2547	86.633103	#	HT
5593	1447	4	-0.8476	2.81638	0.473054	67.204102	#	OT
5594	1447	5	0.4238	3.62799	0.23198	67.736099	#	HT
5595	1447	5	0.4238	2.56896	1.42469	67.386101	#	HT
5596	1448	4	-0.8476	7.46552	1.08323	79.270104	#	OT
5597	1448	5	0.4238	6.57865	1.32615	78.877098	#	HT
5598	1448	5	0.4238	7.86713	0.331374	78.747101	#	HT
5599	1449	4	-0.8476	18.910101	5.50544	84.164101	#	OT
5600	1449	5	0.4238	19.398199	4.74016	83.744103	#	HT
5601	1449	5	0.4238	18.9121	5.39721	85.158104	#	HT
5602	1450	4	-0.8476	23.684799	29.1185	79.982102	#	OT
5603	1450	5	0.4238	23.172501	28.3277	80.317101	#	HT
5604	1450	5	0.4238	23.046499	0.364297	79.649101	#	HT
5605	1451	4	-0.8476	24.795	19.091101	51.034599	#	OT
5606	1451	5	0.4238	24.557501	18.9918	52.0009	#	HT
5607	1451	5	0.4238	24.918501	20.059799	50.819603	#	HT
5608	1452	4	-0.8476	11.8545	10.8166	47.5215	#	OT
5609	1452	5	0.4238	11.7573	11.1094	48.472702	#	HT
5610	1452	5	0.4238	12.1875	9.87396	47.4953	#	HT
5611	1453	4	-0.8476	18.783899	27.9412	13.369202	#	OT
5612	1453	5	0.4238	18.218	28.662399	12.969704	#	HT
5613	1453	5	0.4238	19.2519	28.294901	14.179001	#	HT
5614	1454	4	-0.8476	8.6483	8.65533	69.419106	#	OT
5615	1454	5	0.4238	8.48319	7.69805	69.181099	#	HT
5616	1454	5	0.4238	8.15908	8.87885	70.2621	#	HT
5617	1455	4	-0.8476	3.60288	11.0978	78.199105	#	OT
5618	1455	5	0.4238	3.08314	10.2899	78.477104	#	HT
5619	1455	5	0.4238	4.01276	10.9377	77.301102	#	HT
5620	1456	4	-0.8476	16.7749	3.87226	15.107804	#	OT
5621	1456	5	0.4238	17.0417	4.78378	15.4207	#	HT
5622	1456	5	0.4238	17.0343	3.19449	15.795803	#	HT
5623	1457	4	-0.8476	18.7696	2.29538	24.701203	#	OT
5624	1457	5	0.4238	18.766399	1.33191	24.969002	#	HT
5625	1457	5	0.4238	19.309601	2.40764	23.867005	#	HT
5626	1458	4	-0.8476	1.80443	21.266899	34.817803	#	OT
5627	1458	5	0.4238	1.43485	21.747299	34.0224	#	HT
5628	1458	5	0.4238	2.47975	20.5937	34.516503	#	HT
5629	1459	4	-0.8476	8.12204	3.2491	70.331101	#	OT
5630	1459	5	0.4238	7.16202	2.96916	70.331101	#	HT
5631	1459	5	0.4238	8.55306	2.96098	71.186104	#	HT
5632	1460	4	-0.8476	17.362301	5.85929	4.575901	#	OT
5633	1460	5	0.4238	17.1306	6.0441	5.530903	#	HT
5634	1460	5	0.4238	16.934601	5.00206	4.289002	#	HT
5635	1461	4	-0.8476	21.512699	27.6222	12.268002	#	OT
5636	1461	5	0.4238	20.760201	28.176901	12.622902	#	HT
5637	1461	5	0.4238	22.2311	27.5532	12.960201	#	HT
5638	1462	4	-0.8476	16.7299	27.922701	57.191002	#	OT
5639	1462	5	0.4238	16.627899	28.894699	57.402306	#	HT
5640	1462	5	0.4238	15.8832	27.5793	56.784401	#	HT
5641	1463	4	-0.8476	3.45317	28.834	50.8274	#	OT
5642	1463	5	0.4238	3.11997	27.8964	50.926499	#	HT
5643	1463	5	0.4238	3.89813	28.937401	49.937805	#	HT
5644	1464	4	-0.8476	4.28984	14.7582	18.9972	#	OT
5645	1464	5	0.4238	4.68373	15.2108	18.197201	#	HT
5646	1464	5	0.4238	3.30044	14.903	19.008602	#	HT
5647	1465	4	-0.8476	12.4963	27.3006	8.423104	#	OT
5648	1465	5	0.4238	11.6164	26.868799	8.225002	#	HT
5649	1465	5	0.4238	13.1035	26.6357	8.858101	#	HT
5650	1466	4	-0.8476	12.2009	6.56796	64.174103	#	OT
5651	1466	5	0.4238	12.2457	6.66577	65.168099	#	HT
5652	1466	5	0.4238	11.2444	6.56108	63.883103	#	HT
5653	1467	4	-0.8476	17.591101	19.5257	77.393105	#	OT
5654	1467	5	0.4238	17.0359	20.3319	77.188103	#	HT
5655	1467	5	0.4238	18.5035	19.6408	77.000099	#	HT
5656	1468	4	-0.8476	15.9685	24.698299	48.131401	#	OT
5657	1468	5	0.4238	16.5452	25.465799	48.411499	#	HT
5658	1468	5	0.4238	15.0729	25.040701	47.847099	#	HT
5659	1469	4	-0.8476	3.3018	16.769699	65.951103	#	OT
5660	1469	5	0.4238	3.72274	16.0846	66.545105	#	HT
5661	1469	5	0.4238	3.71451	17.6632	66.127098	#	HT
5662	1470	4	-0.8476	23.181999	25.2001	55.600403	#	OT
5663	1470	5	0.4238	23.0956	25.8354	56.367905	#	HT
5664	1470	5	0.4238	22.784	24.317801	55.8517	#	HT
5665	1471	4	-0.8476	24.9793	29.2945	58.545105	#	OT
5666	1471	5	0.4238	25.234501	0.575823	57.910599	#	HT
5667	1471	5	0.4238	25.189199	0.130456	59.481102	#	HT
5668	1472	4	-0.8476	24.0734	1.37706	55.879898	#	OT
5669	1472	5	0.4238	24.003099	1.77775	54.9664	#	HT
5670	1472	5	0.4238	23.184099	1.0097	56.1521	#	HT
5671	1473	4	-0.8476	2.08848	1.2225	43.098702	#	OT
5672	1473	5	0.4238	1.91648	0.238404	43.143204	#	HT
5673	1473	5	0.4238	2.70321	1.48734	43.841599	#	HT
5674	1474	4	-0.8476	17.0385	26.073099	67.369103	#	OT
5675	1474	5	0.4238	17.500999	26.115601	68.254105	#	HT
5676	1474	5	0.4238	17.529699	25.444201	66.766098	#	HT
5677	1475	4	-0.8476	11.4116	9.08734	86.399109	#	OT
5678	1475	5	0.4238	12.1905	8.49912	86.182099	#	HT
5679	1475	5	0.4238	11.4625	9.92326	85.852104	#	HT
5680	1476	4	-0.8476	23.8529	16.5525	82.934105	#	OT
5681	1476	5	0.4238	24.646601	16.6549	83.534104	#	HT
5682	1476	5	0.4238	24.129499	16.091299	82.091103	#	HT
5683	1477	4	-0.8476	20.406099	16.7952	11.943501	#	OT
5684	1477	5	0.4238	19.949499	16.035	12.405903	#	HT
5685	1477	5	0.4238	20.2159	16.751301	10.962803	#	HT
5686	1478	4	-0.8476	16.438499	21.2925	79.941101	#	OT
5687	1478	5	0.4238	16.4956	20.372499	80.329102	#	HT
5688	1478	5	0.4238	15.4818	21.5175	79.756104	#	HT
5689	1479	4	-0.8476	22.792101	20.257799	79.307099	#	OT
5690	1479	5	0.4238	23.371	19.948999	78.552101	#	HT
5691	1479	5	0.4238	21.956699	20.667299	78.940102	#	HT
5692	1480	4	-0.8476	22.1861	17.532801	67.517105	#	OT
5693	1480	5	0.4238	21.647301	17.053301	68.209099	#	HT
5694	1480	5	0.4238	21.572901	17.9331	66.836106	#	HT
5695	1481	4	-0.8476	7.74488	28.386299	60.1381	#	OT
5696	1481	5	0.4238	6.77011	28.3367	60.356102	#	HT
5697	1481	5	0.4238	8.04017	27.5214	59.732102	#	HT
5698	1482	4	-0.8476	18.1819	18.4044	24.244599	#	OT
5699	1482	5	0.4238	17.8528	18.074699	23.359703	#	HT
5700	1482	5	0.4238	17.492701	19.0014	24.655205	#	HT
5701	1483	4	-0.8476	25.070601	19.5499	23.755303	#	OT
5702	1483	5	0.4238	25.454901	20.357599	24.2024	#	HT
5703	1483	5	0.4238	24.9368	19.7393	22.782501	#	HT
5704	1484	4	-0.8476	20.115999	8.13077	1.156903	#	OT
5705	1484	5	0.4238	19.571501	8.80442	0.657101	#	HT
5706	1484	5	0.4238	20.7094	8.60049	1.810501	#	HT
5707	1485	4	-0.8476	21.7785	29.291599	2.160702	#	OT
5708	1485	5	0.4238	21.009399	29.0436	2.749802	#	HT
5709	1485	5	0.4238	22.482	0.300091	2.705403	#	HT
5710	1486	4	-0.8476	16.4802	5.56388	55.311203	#	OT
5711	1486	5	0.4238	17.3771	5.97977	55.461701	#	HT
5712	1486	5	0.4238	15.7693	6.1613	55.682305	#	HT
5713	1487	4	-0.8476	24.800699	22.7075	22.9581	#	OT
5714	1487	5	0.4238	23.9245	23.042299	23.304802	#	HT
5715	1487	5	0.4238	24.642099	21.939301	22.337799	#	HT
5716	1488	4	-0.8476	0.284208	14.3312	45.900604	#	OT
5717	1488	5	0.4238	25.4816	14.6113	44.990502	#	HT
5718	1488	5	0.4238	24.997101	14.2599	46.509804	#	HT
5719	1489	4	-0.8476	17.357901	6.84369	59.9991	#	OT
5720	1489	5	0.4238	17.687799	6.76449	60.940102	#	HT
5721	1489	5	0.4238	17.209499	5.93034	59.620102	#	HT
5722	1490	4	-0.8476	19.5319	19.6791	8.711304	#	OT
5723	1490	5	0.4238	19.834299	18.728399	8.779701	#	HT
5724	1490	5	0.4238	20.0681	20.2453	9.337303	#	HT
5725	1491	4	-0.8476	16.200701	17.148701	36.516899	#	OT
5726	1491	5	0.4238	16.025299	17.300699	35.544205	#	HT
5727	1491	5	0.4238	15.6629	17.795401	37.057701	#	HT
5728	1492	4	-0.8476	21.429001	16.510799	47.794304	#	OT
5729	1492	5	0.4238	20.6042	16.943399	48.158303	#	HT
5730	1492	5	0.4238	21.933701	16.075199	48.539704	#	HT
5731	1493	4	-0.8476	3.47904	16.644501	12.2425	#	OT
5732	1493	5	0.4238	3.27057	17.004	11.332901	#	HT
5733	1493	5	0.4238	3.75426	15.6861	12.167103	#	HT
5734	1494	4	-0.8476	0.004229	0.475765	64.559105	#	OT
5735	1494	5	0.4238	24.833401	29.1849	64.5411	#	HT
5736	1494	5	0.4238	0.777041	0.23678	63.9711	#	HT
5737	1495	4	-0.8476	22.106701	15.4204	1.122402	#	OT
5738	1495	5	0.4238	22.362801	14.4562	1.191601	#	HT
5739	1495	5	0.4238	21.1129	15.4964	1.042401	#	HT
5740	1496	4	-0.8476	1.24006	18.118601	73.561104	#	OT
5741	1496	5	0.4238	1.8953	18.4974	72.907105	#	HT
5742	1496	5	0.4238	0.511589	17.6448	73.066101	#	HT
5743	1497	4	-0.8476	20.0473	4.15886	59.660103	#	OT
5744	1497	5	0.4238	19.268101	4.65652	59.279099	#	HT
5745	1497	5	0.4238	20.2124	3.33383	59.120102	#	HT
5746	1498	4	-0.8476	5.21204	8.16671	70.266098	#	OT
5747	1498	5	0.4238	5.95077	8.74023	70.620102	#	HT
5748	1498	5	0.4238	5.22437	7.282	70.732102	#	HT
5749	1499	4	-0.8476	19.109501	25.3477	58.711106	#	OT
5750	1499	5	0.4238	19.110001	24.3521	58.618103	#	HT
5751	1499	5	0.4238	18.9484	25.766199	57.8172	#	HT
5752	1500	4	-0.8476	1.53905	3.54437	23.9105	#	OT
5753	1500	5	0.4238	0.957813	3.51332	23.097405	#	HT
5754	1500	5	0.4238	1.40714	2.71054	24.446602	#	HT
5755	1501	4	-0.8476	17.8766	23.337	67.848099	#	OT
5756	1501	5	0.4238	17.2026	23.6318	68.525101	#	HT
5757	1501	5	0.4238	17.748199	22.365101	67.6511	#	HT
5758	1502	4	-0.8476	6.96667	2.47589	13.714604	#	OT
5759	1502	5	0.4238	7.01194	2.16472	12.765301	#	HT
5760	1502	5	0.4238	7.05302	3.47174	13.743401	#	HT
5761	1503	4	-0.8476	0.0502	9.92977	55.878502	#	OT
5762	1503	5	0.4238	24.8762	10.5042	56.339104	#	HT
5763	1503	5	0.4238	0.862053	9.84295	56.455902	#	HT
5764	1504	4	-0.8476	1.33706	22.4174	86.644104	#	OT
5765	1504	5	0.4238	1.5717	23.2943	87.064102	#	HT
5766	1504	5	0.4238	0.3502	22.376101	86.488098	#	HT
5767	1505	4	-0.8476	17.082899	26.067699	63.5961	#	OT
5768	1505	5	0.4238	16.4016	25.5058	63.127098	#	HT
5769	1505	5	0.4238	17.541599	25.520399	64.296105	#	HT
5770	1506	4	-0.8476	4.89819	25.396299	63.021103	#	OT
5771	1506	5	0.4238	4.60984	26.2826	62.659104	#	HT
5772	1506	5	0.4238	4.09158	24.8454	63.236099	#	HT
5773	1507	4	-0.8476	22.737101	24.641001	71.808106	#	OT
5774	1507	5	0.4238	22.8878	23.778299	72.2911	#	HT
5775	1507	5	0.4238	22.9545	24.523001	70.839104	#	HT
5776	1508	4	-0.8476	16.344101	17.4156	5.614304	#	OT
5777	1508	5	0.4238	15.8129	18.2348	5.830303	#	HT
5778	1508	5	0.4238	17.284901	17.676001	5.397301	#	HT
5779	1509	4	-0.8476	22.9303	23.518	76.934105	#	OT
5780	1509	5	0.4238	23.493401	24.277399	77.260102	#	HT
5781	1509	5	0.4238	22.168301	23.373301	77.566101	#	HT
5782	1510	4	-0.8476	1.91816	7.46934	16.305901	#	OT
5783	1510	5	0.4238	1.07842	7.48795	15.763203	#	HT
5784	1510	5	0.4238	2.39371	8.34424	16.214203	#	HT
5785	1511	4	-0.8476	10.9295	3.50672	54.935402	#	OT
5786	1511	5	0.4238	11.8372	3.12319	55.105499	#	HT
5787	1511	5	0.4238	10.2455	2.98131	55.441506	#	HT
5788	1512	4	-0.8476	25.2377	22.3398	61.747101	#	OT
5789	1512	5	0.4238	24.5905	22.029699	62.4441	#	HT
5790	1512	5	0.4238	24.7379	22.7722	60.997101	#	HT
5791	1513	4	-0.8476	24.1479	11.2787	33.8722	#	OT
5792	1513	5	0.4238	24.871401	11.2094	33.185303	#	HT
5793	1513	5	0.4238	24.3123	10.6109	34.598099	#	HT
5794	1514	4	-0.8476	4.43247	17.533501	60.566101	#	OT
5795	1514	5	0.4238	4.45669	17.2488	59.608101	#	HT
5796	1514	5	0.4238	5.28359	18.005899	60.795105	#	HT
5797	1515	4	-0.8476	19.9797	7.50014	62.932099	#	OT
5798	1515	5	0.4238	19.254101	6.85748	62.686104	#	HT
5799	1515	5	0.4238	20.8172	7.26131	62.440102	#	HT
5800	1516	4	-0.8476	12.0206	24.451401	49.540199	#	OT
5801	1516	5	0.4238	11.1441	23.9704	49.518006	#	HT
5802	1516	5	0.4238	12.2716	24.6432	50.488999	#	HT
5803	1517	4	-0.8476	14.6316	10.8388	3.266503	#	OT
5804	1517	5	0.4238	15.5242	10.9127	3.711304	#	HT
5805	1517	5	0.4238	14.1286	10.0667	3.654801	#	HT
5806	1518	4	-0.8476	2.37888	21.649799	56.539505	#	OT
5807	1518	5	0.4238	2.36211	20.6775	56.306198	#	HT
5808	1518	5	0.4238	1.51944	22.075399	56.256302	#	HT
5809	1519	4	-0.8476	23.839701	9.07218	23.822502	#	OT
5810	1519	5	0.4238	23.4849	9.29329	22.914101	#	HT
5811	1519	5	0.4238	24.059299	8.09758	23.866402	#	HT
5812	1520	4	-0.8476	12.3786	23.531799	56.348	#	OT
5813	1520	5	0.4238	13.2723	23.6632	55.918999	#	HT
5814	1520	5	0.4238	12.4986	23.384701	57.329804	#	HT
5815	1521	4	-0.8476	23.497801	1.3423	28.236702	#	OT
5816	1521	5	0.4238	23.302299	1.56093	27.280602	#	HT
5817	1521	5	0.4238	24.433901	1.61668	28.456703	#	HT
5818	1522	4	-0.8476	2.19535	25.442101	23.623299	#	OT
5819	1522	5	0.4238	2.08863	26.396299	23.343605	#	HT
5820	1522	5	0.4238	2.11825	25.375799	24.618103	#	HT
5821	1523	4	-0.8476	3.40701	19.1756	71.670105	#	OT
5822	1523	5	0.4238	4.19688	18.795601	71.189102	#	HT
5823	1523	5	0.4238	2.7881	19.601999	71.011101	#	HT
5824	1524	4	-0.8476	17.354	13.2589	0.984204	#	OT
5825	1524	5	0.4238	17.1462	13.2475	1.962303	#	HT
5826	1524	5	0.4238	16.5016	13.2296	0.462101	#	HT
5827	1525	4	-0.8476	20.926001	5.18583	65.424103	#	OT
5828	1525	5	0.4238	20.725	4.33248	64.942101	#	HT
5829	1525	5	0.4238	20.2377	5.8717	65.187103	#	HT
5830	1526	4	-0.8476	3.36791	0.331543	27.946701	#	OT
5831	1526	5	0.4238	2.94325	28.875999	28.004402	#	HT
5832	1526	5	0.4238	4.10898	0.309285	27.275704	#	HT
5833	1527	4	-0.8476	5.43952	12.8375	71.093102	#	OT
5834	1527	5	0.4238	5.62726	12.2887	70.279099	#	HT
5835	1527	5	0.4238	6.15245	12.6758	71.7761	#	HT
5836	1528	4	-0.8476	9.52765	2.44216	72.603104	#	OT
5837	1528	5	0.4238	9.49872	2.66645	73.577103	#	HT
5838	1528	5	0.4238	9.74251	1.47201	72.491104	#	HT
5839	1529	4	-0.8476	20.6492	13.6887	58.925102	#	OT
5840	1529	5	0.4238	21.168699	13.5712	59.772103	#	HT
5841	1529	5	0.4238	20.0397	14.4765	59.015099	#	HT
5842	1530	4	-0.8476	21.659901	28.7626	31.559303	#	OT
5843	1530	5	0.4238	20.770399	29.215799	31.617203	#	HT
5844	1530	5	0.4238	22.285	29.168699	32.226006	#	HT
5845	1531	4	-0.8476	14.0387	20.149	85.989105	#	OT
5846	1531	5	0.4238	13.9167	19.541401	85.204102	#	HT
5847	1531	5	0.4238	13.1548	20.3057	86.429108	#	HT
5848	1532	4	-0.8476	1.79792	27.3524	81.422104	#	OT
5849	1532	5	0.4238	2.16659	26.4725	81.722099	#	HT
5850	1532	5	0.4238	2.18061	28.0839	81.986099	#	HT
5851	1533	4	-0.8476	11.8923	14.0051	78.022103	#	OT
5852	1533	5	0.4238	11.4742	14.006	77.113098	#	HT
5853	1533	5	0.4238	11.2177	14.2975	78.699105	#	HT
5854	1534	4	-0.8476	1.54585	0.378144	78.171105	#	OT
5855	1534	5	0.4238	1.09529	29.007299	78.5271	#	HT
5856	1534	5	0.4238	1.42446	0.421274	77.1791	#	HT
5857	1535	4	-0.8476	15.0687	12.1239	76.547104	#	OT
5858	1535	5	0.4238	15.263	13.0454	76.884102	#	HT
5859	1535	5	0.4238	14.6432	11.5863	77.275101	#	HT
5860	1536	4	-0.8476	15.5996	6.00011	47.428803	#	OT
5861	1536	5	0.4238	14.6444	5.94423	47.7192	#	HT
5862	1536	5	0.4238	16.119699	6.53512	48.094605	#	HT
5863	1537	4	-0.8476	4.64786	15.1895	36.3648	#	OT
5864	1537	5	0.4238	4.48277	14.8246	37.281105	#	HT
5865	1537	5	0.4238	3.78329	15.4979	35.968102	#	HT
5866	1538	4	-0.8476	4.67097	20.8325	73.700104	#	OT
5867	1538	5	0.4238	3.8727	21.3283	74.042099	#	HT
5868	1538	5	0.4238	4.41581	20.311199	72.886101	#	HT
5869	1539	4	-0.8476	17.719999	25.8622	78.168099	#	OT
5870	1539	5	0.4238	17.595699	25.0494	77.599098	#	HT
5871	1539	5	0.4238	16.8484	26.108801	78.592102	#	HT
5872	1540	4	-0.8476	22.7766	13.9276	65.278099	#	OT
5873	1540	5	0.4238	22.343399	13.3759	65.990105	#	HT
5874	1540	5	0.4238	23.292299	14.6729	65.700104	#	HT
5875	1541	4	-0.8476	11.8332	0.020117	78.589104	#	OT
5876	1541	5	0.4238	11.9572	28.6432	79.140099	#	HT
5877	1541	5	0.4238	12.5156	0.038172	77.858101	#	HT
5878	1542	4	-0.8476	4.48548	23.649	57.128403	#	OT
5879	1542	5	0.4238	3.78518	22.940001	57.046005	#	HT
5880	1542	5	0.4238	4.14842	24.4991	56.723602	#	HT
5881	1543	4	-0.8476	20.8836	17.5415	75.510102	#	OT
5882	1543	5	0.4238	20.543699	18.468901	75.6661	#	HT
5883	1543	5	0.4238	20.286699	17.073099	74.858101	#	HT
5884	1544	4	-0.8476	1.24463	3.1196	34.996605	#	OT
5885	1544	5	0.4238	1.6496	2.24391	34.733505	#	HT
5886	1544	5	0.4238	0.258905	3.09437	34.830101	#	HT
5887	1545	4	-0.8476	17	13.163	3.815602	#	OT
5888	1545	5	0.4238	16.5963	14.0774	3.843804	#	HT
5889	1545	5	0.4238	17.754601	13.1116	4.469704	#	HT
5890	1546	4	-0.8476	2.62995	22.566	74.6231	#	OT
5891	1546	5	0.4238	3.39136	23.126301	74.950104	#	HT
5892	1546	5	0.4238	2.09977	22.2367	75.405106	#	HT
5893	1547	4	-0.8476	23.8918	4.19941	36.8844	#	OT
5894	1547	5	0.4238	23.02	4.67712	36.775604	#	HT
5895	1547	5	0.4238	23.9161	3.40724	36.274605	#	HT
5896	1548	4	-0.8476	7.01752	17.7533	65.714104	#	OT
5897	1548	5	0.4238	7.92609	17.9121	65.328102	#	HT
5898	1548	5	0.4238	6.76888	16.7918	65.597099	#	HT
5899	1549	4	-0.8476	24.2869	5.04929	59.1791	#	OT
5900	1549	5	0.4238	23.6378	4.29493	59.2771	#	HT
5901	1549	5	0.4238	25.218901	4.70324	59.286102	#	HT
5902	1550	4	-0.8476	20.950701	3.91229	71.9151	#	OT
5903	1550	5	0.4238	21.899099	3.61622	72.029099	#	HT
5904	1550	5	0.4238	20.9256	4.90106	71.768105	#	HT
5905	1551	4	-0.8476	18.753599	22.955999	73.979103	#	OT
5906	1551	5	0.4238	19.254299	22.190901	73.574105	#	HT
5907	1551	5	0.4238	19.0543	23.811399	73.557099	#	HT
5908	1552	4	-0.8476	17.055799	20.964199	66.934105	#	OT
5909	1552	5	0.4238	16.9042	20.2829	67.650101	#	HT
5910	1552	5	0.4238	16.989599	20.5259	66.038101	#	HT
5911	1553	4	-0.8476	9.90684	25.147699	1.461304	#	OT
5912	1553	5	0.4238	10.5518	24.479	1.831303	#	HT
5913	1553	5	0.4238	10.359	26.0357	1.3773	#	HT
5914	1554	4	-0.8476	22.9088	22.0501	72.660103	#	OT
5915	1554	5	0.4238	22.010401	21.6266	72.7761	#	HT
5916	1554	5	0.4238	23.386499	22.063499	73.539101	#	HT
5917	1555	4	-0.8476	14.241	27.239	56.2379	#	OT
5918	1555	5	0.4238	13.7059	28.0805	56.311905	#	HT
5919	1555	5	0.4238	13.8478	26.5404	56.835701	#	HT
5920	1556	4	-0.8476	6.68526	8.10604	63.628105	#	OT
5921	1556	5	0.4238	7.63738	7.96793	63.9011	#	HT
5922	1556	5	0.4238	6.16898	8.48097	64.398102	#	HT
5923	1557	4	-0.8476	2.67929	9.07646	64.042099	#	OT
5924	1557	5	0.4238	3.51468	8.91365	64.567101	#	HT
5925	1557	5	0.4238	2.17545	9.84014	64.446099	#	HT
5926	1558	4	-0.8476	17.3598	8.00167	69.649101	#	OT
5927	1558	5	0.4238	17.8955	8.81667	69.870102	#	HT
5928	1558	5	0.4238	17.7582	7.2068	70.107102	#	HT
5929	1559	4	-0.8476	21.1894	29.2453	54.9207	#	OT
5930	1559	5	0.4238	21.744301	28.7665	54.240402	#	HT
5931	1559	5	0.4238	20.8794	28.5958	55.615006	#	HT
5932	1560	4	-0.8476	13.6353	28.072001	20.612702	#	OT
5933	1560	5	0.4238	13.9188	28.615601	19.822701	#	HT
5934	1560	5	0.4238	12.9786	28.5933	21.157704	#	HT
5935	1561	4	-0.8476	10.8843	5.76043	85.407105	#	OT
5936	1561	5	0.4238	10.1157	6.24853	84.993103	#	HT
5937	1561	5	0.4238	11.4241	6.39555	85.959099	#	HT
5938	1562	4	-0.8476	11.6583	2.67595	79.784104	#	OT
5939	1562	5	0.4238	11.4338	1.76021	79.451103	#	HT
5940	1562	5	0.4238	10.9989	3.33393	79.421105	#	HT
5941	1563	4	-0.8476	7.1913	28.645901	14.729302	#	OT
5942	1563	5	0.4238	7.59239	27.843399	14.287602	#	HT
5943	1563	5	0.4238	6.40653	28.365	15.2817	#	HT
5944	1564	4	-0.8476	2.15409	14.1074	78.712105	#	OT
5945	1564	5	0.4238	2.75221	14.9087	78.700104	#	HT
5946	1564	5	0.4238	2.69784	13.2884	78.895104	#	HT
5947	1565	4	-0.8476	20.871401	28.179199	15.587101	#	OT
5948	1565	5	0.4238	21.794001	27.8006	15.661801	#	HT
5949	1565	5	0.4238	20.2027	27.480101	15.840401	#	HT
5950	1566	4	-0.8476	23.7439	11.6819	57.115799	#	OT
5951	1566	5	0.4238	22.767599	11.8314	56.958901	#	HT
5952	1566	5	0.4238	24.189301	12.5573	57.303299	#	HT
5953	1567	4	-0.8476	14.5506	12.9906	86.325104	#	OT
5954	1567	5	0.4238	14.1784	13.8024	85.875099	#	HT
5955	1567	5	0.4238	15.532	13.1124	86.474106	#	HT
5956	1568	4	-0.8476	1.28719	5.80152	69.1371	#	OT
5957	1568	5	0.4238	1.38857	6.56994	69.769104	#	HT
5958	1568	5	0.4238	0.319775	5.67637	68.917099	#	HT
5959	1569	4	-0.8476	7.53368	5.24539	66.214104	#	OT
5960	1569	5	0.4238	7.02772	4.5995	65.643105	#	HT
5961	1569	5	0.4238	8.27215	4.76455	66.687103	#	HT
5962	1570	4	-0.8476	2.86241	12.158	29.7286	#	OT
5963	1570	5	0.4238	3.31911	13.0445	29.654999	#	HT
5964	1570	5	0.4238	3.20125	11.6745	30.535805	#	HT
5965	1571	4	-0.8476	8.79143	7.53612	79.4161	#	OT
5966	1571	5	0.4238	8.22948	8.35447	79.537102	#	HT
5967	1571	5	0.4238	8.61327	7.13903	78.516098	#	HT
5968	1572	4	-0.8476	18.480499	26.2062	56.096604	#	OT
5969	1572	5	0.4238	18.3431	25.996401	55.128601	#	HT
5970	1572	5	0.4238	17.7974	26.873501	56.393303	#	HT
5971	1573	4	-0.8476	10.2683	22.264799	27.265305	#	OT
5972	1573	5	0.4238	11.2173	22.327499	26.9562	#	HT
5973	1573	5	0.4238	9.85726	21.424801	26.911003	#	HT
5974	1574	4	-0.8476	9.72286	13.9122	75.7901	#	OT
5975	1574	5	0.4238	10.0236	13.9535	74.837105	#	HT
5976	1574	5	0.4238	9.06191	14.6424	75.962105	#	HT
5977	1575	4	-0.8476	18.526899	20.949699	22.440003	#	OT
5978	1575	5	0.4238	17.9916	20.3368	21.858803	#	HT
5979	1575	5	0.4238	19.0634	21.568899	21.866501	#	HT
5980	1576	4	-0.8476	3.98118	5.68887	19.445503	#	OT
5981	1576	5	0.4238	3.64124	4.83361	19.054402	#	HT
5982	1576	5	0.4238	3.36516	6.43667	19.197903	#	HT
5983	1577	4	-0.8476	16.8804	3.15029	12.110802	#	OT
5984	1577	5	0.4238	15.979	3.58156	12.072602	#	HT
5985	1577	5	0.4238	16.7859	2.16642	11.959004	#	HT
5986	1578	4	-0.8476	10.8928	9.67792	81.600105	#	OT
5987	1578	5	0.4238	11.2961	9.44012	80.716103	#	HT
5988	1578	5	0.4238	11.5939	9.62581	82.311104	#	HT
5989	1579	4	-0.8476	9.74522	5.65581	81.460098	#	OT
5990	1579	5	0.4238	9.74689	6.32836	80.720101	#	HT
5991	1579	5	0.4238	9.10311	4.92108	81.241104	#	HT
5992	1580	4	-0.8476	19.8153	1.41255	76.932099	#	OT
5993	1580	5	0.4238	19.7446	1.2313	75.951103	#	HT
5994	1580	5	0.4238	18.9526	1.17429	77.378105	#	HT
5995	1581	4	-0.8476	5.95597	1.49497	70.254105	#	OT
5996	1581	5	0.4238	5.02046	1.69671	69.964104	#	HT
5997	1581	5	0.4238	5.93566	0.985167	71.114105	#	HT
5998	1582	4	-0.8476	9.65238	2.90874	85.989105	#	OT
5999	1582	5	0.4238	9.95106	2.04659	86.399109	#	HT
6000	1582	5	0.4238	10.1732	3.66436	86.3871	#	HT
6001	1583	4	-0.8476	1.78094	6.05451	7.199703	#	OT
6002	1583	5	0.4238	1.75562	6.66187	6.405701	#	HT
6003	1583	5	0.4238	0.925182	6.13765	7.710301	#	HT
6004	1584	4	-0.8476	6.68188	3.12791	60.442101	#	OT
6005	1584	5	0.4238	6.15938	3.97884	60.3881	#	HT
6006	1584	5	0.4238	6.54034	2.7062	61.338104	#	HT
6007	1585	4	-0.8476	21.351101	3.79578	76.384102	#	OT
6008	1585	5	0.4238	20.8242	2.96948	76.5831	#	HT
6009	1585	5	0.4238	22.119499	3.56533	75.787102	#	HT
6010	1586	4	-0.8476	13.9277	11.3065	81.574105	#	OT
6011	1586	5	0.4238	13.056	11.7933	81.630104	#	HT
6012	1586	5	0.4238	13.8316	10.4015	81.988098	#	HT
6013	1587	4	-0.8476	19.1042	27.7997	73.879105	#	OT
6014	1587	5	0.4238	18.745001	27.738899	74.810105	#	HT
6015	1587	5	0.4238	18.367599	28.058001	73.254105	#	HT
6016	1588	4	-0.8476	0.569019	10.2842	85.005104	#	OT
6017	1588	5	0.4238	0.876643	11.1941	84.726105	#	HT
6018	1588	5	0.4238	1.34846	9.65785	85.016098	#	HT
6019	1589	4	-0.8476	7.00724	8.76282	73.404099	#	OT
6020	1589	5	0.4238	7.07063	7.91777	72.8731	#	HT
6021	1589	5	0.4238	7.47773	8.64326	74.278099	#	HT
6022	1590	4	-0.8476	13.958	21.4452	60.073105	#	OT
6023	1590	5	0.4238	13.6155	21.7749	60.953102	#	HT
6024	1590	5	0.4238	14.8911	21.1036	60.186104	#	HT
6025	1591	4	-0.8476	21.763399	14.9044	76.140099	#	OT
6026	1591	5	0.4238	21.653099	15.8845	75.974098	#	HT
6027	1591	5	0.4238	22.638	14.7398	76.5961	#	HT
6028	1592	4	-0.8476	18.3869	9.9413	62.6371	#	OT
6029	1592	5	0.4238	19.3083	9.58992	62.803101	#	HT
6030	1592	5	0.4238	18.331699	10.891	62.945099	#	HT
6031	1593	4	-0.8476	0.97785	4.61017	74.311104	#	OT
6032	1593	5	0.4238	1.34967	4.63097	73.383103	#	HT
6033	1593	5	0.4238	0.237956	5.27839	74.3881	#	HT
6034	1594	4	-0.8476	1.02637	10.8418	65.153099	#	OT
6035	1594	5	0.4238	0.722521	10.887	64.202103	#	HT
6036	1594	5	0.4238	0.667182	10.0112	65.579102	#	HT
6037	1595	4	-0.8476	8.3924	12.5615	63.774101	#	OT
6038	1595	5	0.4238	9.37129	12.5013	63.969101	#	HT
6039	1595	5	0.4238	8.20579	12.1584	62.878105	#	HT
6040	1596	4	-0.8476	8.28831	13.0717	69.155106	#	OT
6041	1596	5	0.4238	7.89128	13.9893	69.177101	#	HT
6042	1596	5	0.4238	7.87368	12.547	68.412102	#	HT
6043	1597	4	-0.8476	17.285601	13.7863	81.406105	#	OT
6044	1597	5	0.4238	18.2045	13.5067	81.685105	#	HT
6045	1597	5	0.4238	17.331499	14.246	80.520104	#	HT
6046	1598	4	-0.8476	15.5938	25.382099	86.433106	#	OT
6047	1598	5	0.4238	16.378099	25.3477	85.813103	#	HT
6048	1598	5	0.4238	15.9048	25.626699	87.351105	#	HT
6049	1599	4	-0.8476	21.5058	7.07888	85.855103	#	OT
6050	1599	5	0.4238	21.3188	6.1012	85.950104	#	HT
6051	1599	5	0.4238	22.4876	7.21944	85.727104	#	HT
6052	1600	4	-0.8476	0.433395	20.5033	58.904099	#	OT
6053	1600	5	0.4238	1.10941	19.8813	59.299103	#	HT
6054	1600	5	0.4238	0.441923	20.4158	57.908005	#	HT
6055	1601	4	-0.8476	2.00829	25.8465	60.109101	#	OT
6056	1601	5	0.4238	1.85336	26.0249	61.081101	#	HT
6057	1601	5	0.4238	1.7777	24.895399	59.904099	#	HT
6058	1602	4	-0.8476	8.88684	28.269899	68.316101	#	OT
6059	1602	5	0.4238	9.11458	27.792999	69.1651	#	HT
6060	1602	5	0.4238	8.38636	27.6514	67.710098	#	HT
6061	1603	4	-0.8476	3.86417	28.1008	47.946503	#	OT
6062	1603	5	0.4238	4.74422	27.6612	47.7668	#	HT
6063	1603	5	0.4238	3.21102	27.4177	48.2734	#	HT
6064	1604	4	-0.8476	20.7563	6.16101	68.1651	#	OT
6065	1604	5	0.4238	21.321301	6.43487	67.3871	#	HT
6066	1604	5	0.4238	19.840599	5.91973	67.844101	#	HT
6067	1605	4	-0.8476	7.49176	23.816799	31.633904	#	OT
6068	1605	5	0.4238	7.89633	24.623899	31.203804	#	HT
6069	1605	5	0.4238	8.21904	23.217199	31.967804	#	HT
6070	1606	4	-0.8476	10.6531	25.021099	8.298702	#	OT
6071	1606	5	0.4238	11.4274	24.4244	8.509701	#	HT
6072	1606	5	0.4238	10.3923	24.9025	7.340702	#	HT
6073	1607	4	-0.8476	8.87246	2.88585	5.327603	#	OT
6074	1607	5	0.4238	9.6662	2.9615	4.724102	#	HT
6075	1607	5	0.4238	8.56613	1.9344	5.357804	#	HT
6076	1608	4	-0.8476	11.3728	20.8074	13.256401	#	OT
6077	1608	5	0.4238	10.6522	21.4963	13.334202	#	HT
6078	1608	5	0.4238	11.8053	20.8776	12.357502	#	HT
6079	1609	4	-0.8476	20.816999	29.119699	82.156105	#	OT
6080	1609	5	0.4238	21.5439	29.0751	82.841103	#	HT
6081	1609	5	0.4238	19.931601	29.1989	82.614105	#	HT
6082	1610	4	-0.8476	20.891399	17.0697	5.6945	#	OT
6083	1610	5	0.4238	21.844999	16.9454	5.420502	#	HT
6084	1610	5	0.4238	20.843599	17.2019	6.684601	#	HT
6085	1611	4	-0.8476	17.093599	0.953754	77.462105	#	OT
6086	1611	5	0.4238	16.8524	1.78808	76.966103	#	HT
6087	1611	5	0.4238	16.2743	0.570951	77.889099	#	HT
6088	1612	4	-0.8476	20.1292	21.5152	82.466103	#	OT
6089	1612	5	0.4238	21.077299	21.4079	82.167099	#	HT
6090	1612	5	0.4238	20.0966	21.546	83.465103	#	HT
6091	1613	4	-0.8476	21.1518	27.3857	61.919106	#	OT
6092	1613	5	0.4238	20.5539	27.7733	62.621102	#	HT
6093	1613	5	0.4238	22.0114	27.8962	61.894104	#	HT
6094	1614	4	-0.8476	9.22135	16.151699	35.512505	#	OT
6095	1614	5	0.4238	8.6086	16.908199	35.284004	#	HT
6096	1614	5	0.4238	8.68132	15.3343	35.713104	#	HT
6097	1615	4	-0.8476	1.51482	25.3344	86.479096	#	OT
6098	1615	5	0.4238	0.961422	25.3685	85.646103	#	HT
6099	1615	5	0.4238	2.16369	26.095301	86.479096	#	HT
6100	1616	4	-0.8476	4.91564	18.5956	55.852905	#	OT
6101	1616	5	0.4238	4.80197	18.839399	54.889702	#	HT
6102	1616	5	0.4238	5.85721	18.299101	56.012703	#	HT
6103	1617	4	-0.8476	21.025	10.7411	6.252102	#	OT
6104	1617	5	0.4238	20.2533	10.1411	6.041302	#	HT
6105	1617	5	0.4238	21.845501	10.4032	5.791104	#	HT
6106	1618	4	-0.8476	4.52182	7.64494	75.706101	#	OT
6107	1618	5	0.4238	3.73983	7.15472	76.091103	#	HT
6108	1618	5	0.4238	4.29606	8.61504	75.617104	#	HT
6109	1619	4	-0.8476	6.48078	21.0739	68.892105	#	OT
6110	1619	5	0.4238	5.90652	21.877399	69.048104	#	HT
6111	1619	5	0.4238	7.05789	21.2281	68.090103	#	HT
6112	1620	4	-0.8476	6.57318	6.60019	57.837601	#	OT
6113	1620	5	0.4238	6.80677	7.56982	57.910004	#	HT
6114	1620	5	0.4238	5.96591	6.34648	58.590103	#	HT
6115	1621	4	-0.8476	11.6203	7.98473	33.643799	#	OT
6116	1621	5	0.4238	11.8851	8.68318	32.978905	#	HT
6117	1621	5	0.4238	12.1945	8.06535	34.458504	#	HT
6118	1622	4	-0.8476	0.925249	18.972099	81.662102	#	OT
6119	1622	5	0.4238	0.443229	19.8314	81.8331	#	HT
6120	1622	5	0.4238	1.20918	18.5702	82.532105	#	HT
6121	1623	4	-0.8476	19.089001	9.1995	77.357102	#	OT
6122	1623	5	0.4238	19.3475	9.88685	78.035103	#	HT
6123	1623	5	0.4238	19.898001	8.67787	77.086106	#	HT
6124	1624	4	-0.8476	18.8585	15.7262	58.9711	#	OT
6125	1624	5	0.4238	18.584	16.312099	59.733101	#	HT
6126	1624	5	0.4238	18.6605	16.1889	58.107002	#	HT
6127	1625	4	-0.8476	17.866501	28.032	17.692402	#	OT
6128	1625	5	0.4238	17.9813	28.992901	17.4403	#	HT
6129	1625	5	0.4238	18.1908	27.8918	18.628002	#	HT
6130	1626	4	-0.8476	21.4475	26.7498	85.218102	#	OT
6131	1626	5	0.4238	21.9065	27.625401	85.0681	#	HT
6132	1626	5	0.4238	20.460899	26.8981	85.287102	#	HT
6133	1627	4	-0.8476	0.47157	5.59882	80.148102	#	OT
6134	1627	5	0.4238	0.537061	4.86202	80.821099	#	HT
6135	1627	5	0.4238	25.389	6.32626	80.506104	#	HT
6136	1628	4	-0.8476	5.28701	17.5846	70.577103	#	OT
6137	1628	5	0.4238	4.88494	16.677401	70.700104	#	HT
6138	1628	5	0.4238	5.37244	17.7808	69.600105	#	HT
6139	1629	4	-0.8476	6.5489	3.60927	64.442101	#	OT
6140	1629	5	0.4238	7.33055	3.2511	63.932099	#	HT
6141	1629	5	0.4238	5.75744	3.01471	64.300102	#	HT
6142	1630	4	-0.8476	9.48212	21.2062	73.732102	#	OT
6143	1630	5	0.4238	8.49201	21.313801	73.642105	#	HT
6144	1630	5	0.4238	9.81746	20.5949	73.015099	#	HT
6145	1631	4	-0.8476	19.5271	18.2372	63.817101	#	OT
6146	1631	5	0.4238	19.6604	17.282101	64.0821	#	HT
6147	1631	5	0.4238	20.4161	18.6877	63.736099	#	HT
6148	1632	4	-0.8476	20.8298	27.5005	56.969101	#	OT
6149	1632	5	0.4238	20.1658	26.9132	56.506203	#	HT
6150	1632	5	0.4238	20.4398	27.8318	57.828201	#	HT
6151	1633	4	-0.8476	11.4187	17.0931	84.1801	#	OT
6152	1633	5	0.4238	11.0577	17.221201	85.104103	#	HT
6153	1633	5	0.4238	10.6619	16.9394	83.545105	#	HT
6154	1634	4	-0.8476	15.2891	5.41506	25.165199	#	OT
6155	1634	5	0.4238	15.715	5.89157	24.396103	#	HT
6156	1634	5	0.4238	14.6679	6.03808	25.640602	#	HT
6157	1635	4	-0.8476	11.9231	27.079201	80.017105	#	OT
6158	1635	5	0.4238	12.1657	26.236099	80.497101	#	HT
6159	1635	5	0.4238	10.9415	27.245399	80.111099	#	HT
6160	1636	4	-0.8476	11.3866	27.363199	67.556099	#	OT
6161	1636	5	0.4238	10.488	27.788601	67.664101	#	HT
6162	1636	5	0.4238	11.4564	26.572599	68.164101	#	HT
6163	1637	4	-0.8476	15.7632	1.13365	80.060105	#	OT
6164	1637	5	0.4238	15.404	0.462208	79.412102	#	HT
6165	1637	5	0.4238	15.0395	1.40472	80.695099	#	HT
6166	1638	4	-0.8476	13.2356	3.94959	86.403107	#	OT
6167	1638	5	0.4238	12.6227	4.14669	85.6381	#	HT
6168	1638	5	0.4238	13.548	3.00146	86.344101	#	HT
6169	1639	4	-0.8476	8.09419	13.4505	86.036102	#	OT
6170	1639	5	0.4238	8.16296	12.5293	86.419098	#	HT
6171	1639	5	0.4238	8.33657	13.4273	85.066101	#	HT
6172	1640	4	-0.8476	1.77528	17.8144	83.8881	#	OT
6173	1640	5	0.4238	2.08787	16.92	83.5681	#	HT
6174	1640	5	0.4238	1.56357	17.764	84.864105	#	HT
6175	1641	4	-0.8476	21.026199	29.3536	72.657105	#	OT
6176	1641	5	0.4238	20.3445	28.682899	72.950104	#	HT
6177	1641	5	0.4238	21.7876	29.3592	73.306099	#	HT
6178	1642	4	-0.8476	19.7684	6.03888	3.461804	#	OT
6179	1642	5	0.4238	18.8605	5.91362	3.861603	#	HT
6180	1642	5	0.4238	20.3307	6.5906	4.077801	#	HT
6181	1643	4	-0.8476	1.10346	25.82	62.5681	#	OT
6182	1643	5	0.4238	1.43502	25.248699	63.3191	#	HT
6183	1643	5	0.4238	0.126887	25.6551	62.4301	#	HT
6184	1644	4	-0.8476	2.38558	8.21398	20.839703	#	OT
6185	1644	5	0.4238	2.89517	8.93713	20.373402	#	HT
6186	1644	5	0.4238	2.97952	7.7649	21.507202	#	HT
6187	1645	4	-0.8476	9.32362	26.609301	70.492104	#	OT
6188	1645	5	0.4238	9.92119	26.119499	71.127098	#	HT
6189	1645	5	0.4238	8.42616	26.168699	70.472099	#	HT
6190	1646	4	-0.8476	3.1397	29.0238	83.252098	#	OT
6191	1646	5	0.4238	3.25128	0.467916	83.690102	#	HT
6192	1646	5	0.4238	4.03926	28.6238	83.077103	#	HT
6193	1647	4	-0.8476	21.416401	1.67874	44.831001	#	OT
6194	1647	5	0.4238	20.464899	1.82944	44.563103	#	HT
6195	1647	5	0.4238	21.803301	0.936668	44.2836	#	HT
6196	1648	4	-0.8476	13.2735	17.3906	71.648102	#	OT
6197	1648	5	0.4238	12.3476	17.577499	71.976105	#	HT
6198	1648	5	0.4238	13.887	17.2743	72.4291	#	HT
6199	1649	4	-0.8476	23.6887	20.1887	60.1801	#	OT
6200	1649	5	0.4238	23.805901	20.2988	61.167099	#	HT
6201	1649	5	0.4238	24.575199	20.2815	59.727104	#	HT
6202	1650	4	-0.8476	11.445	10.0318	53.528198	#	OT
6203	1650	5	0.4238	10.8697	10.1962	54.329399	#	HT
6204	1650	5	0.4238	12.3852	9.85986	53.822602	#	HT
6205	1651	4	-0.8476	23.921499	25.056999	66.658104	#	OT
6206	1651	5	0.4238	23.4366	25.859501	67.006104	#	HT
6207	1651	5	0.4238	24.8999	25.256399	66.604103	#	HT
6208	1652	4	-0.8476	16.0861	11.9088	32.419205	#	OT
6209	1652	5	0.4238	15.7402	12.6872	32.942902	#	HT
6210	1652	5	0.4238	15.4316	11.1546	32.471298	#	HT
6211	1653	4	-0.8476	23.011999	17.235201	86.376099	#	OT
6212	1653	5	0.4238	23.344	16.9834	87.285095	#	HT
6213	1653	5	0.4238	22.115801	17.6712	86.457108	#	HT
6214	1654	4	-0.8476	15.456	26.388399	33.930802	#	OT
6215	1654	5	0.4238	15.5614	27.1882	33.339905	#	HT
6216	1654	5	0.4238	16.167999	25.7197	33.716805	#	HT
6217	1655	4	-0.8476	19.162399	5.45991	75.938103	#	OT
6218	1655	5	0.4238	19.278099	6.33589	76.406105	#	HT
6219	1655	5	0.4238	19.9709	4.89133	76.090103	#	HT
6220	1656	4	-0.8476	8.27884	11.7237	61.058106	#	OT
6221	1656	5	0.4238	7.55828	11.0507	61.225105	#	HT
6222	1656	5	0.4238	7.86926	12.5783	60.739105	#	HT
6223	1657	4	-0.8476	8.40928	5.03284	35.233002	#	OT
6224	1657	5	0.4238	8.23781	5.64119	34.458	#	HT
6225	1657	5	0.4238	9.3824	5.05159	35.462502	#	HT
6226	1658	4	-0.8476	0.986714	11.2172	32.3274	#	OT
6227	1658	5	0.4238	1.8906	11.0732	32.730301	#	HT
6228	1658	5	0.4238	0.815011	10.5165	31.634903	#	HT
6229	1659	4	-0.8476	14.1558	24.775499	83.618103	#	OT
6230	1659	5	0.4238	14.6751	23.944599	83.8181	#	HT
6231	1659	5	0.4238	14.1816	25.383699	84.411102	#	HT
6232	1660	4	-0.8476	12.8102	2.34851	66.987099	#	OT
6233	1660	5	0.4238	12.1899	2.77739	66.330101	#	HT
6234	1660	5	0.4238	12.7943	1.35651	66.862099	#	HT
6235	1661	4	-0.8476	2.16784	5.72785	56.953598	#	OT
6236	1661	5	0.4238	2.69769	5.10724	56.375603	#	HT
6237	1661	5	0.4238	1.42019	6.12342	56.420204	#	HT
6238	1662	4	-0.8476	21.3479	1.52066	66.280106	#	OT
6239	1662	5	0.4238	21.4575	1.96453	67.169106	#	HT
6240	1662	5	0.4238	20.76	0.717732	66.378105	#	HT
6241	1663	4	-0.8476	6.65363	14.608	78.809105	#	OT
6242	1663	5	0.4238	6.53554	13.616	78.852104	#	HT
6243	1663	5	0.4238	6.00385	14.9928	78.153099	#	HT
6244	1664	4	-0.8476	25.3064	21.5229	81.959099	#	OT
6245	1664	5	0.4238	25.1523	22.3011	81.350105	#	HT
6246	1664	5	0.4238	0.30649	21.827101	82.768105	#	HT
6247	1665	4	-0.8476	14.9449	4.733	40.5812	#	OT
6248	1665	5	0.4238	15.3343	5.64884	40.4832	#	HT
6249	1665	5	0.4238	14.6592	4.59205	41.529099	#	HT
6250	1666	4	-0.8476	0.340884	27.7323	79.092102	#	OT
6251	1666	5	0.4238	0.871952	27.536501	79.9161	#	HT
6252	1666	5	0.4238	24.9606	28.124599	79.349098	#	HT
6253	1667	4	-0.8476	20.7987	9.64851	32.216599	#	OT
6254	1667	5	0.4238	21.165501	8.99323	32.876999	#	HT
6255	1667	5	0.4238	19.9748	10.0736	32.591301	#	HT
6256	1668	4	-0.8476	19.552099	11.7707	81.6801	#	OT
6257	1668	5	0.4238	19.4146	11.009	82.313103	#	HT
6258	1668	5	0.4238	20.0919	12.4833	82.128105	#	HT
6259	1669	4	-0.8476	9.50384	14.2478	79.434105	#	OT
6260	1669	5	0.4238	9.68687	13.301	79.698105	#	HT
6261	1669	5	0.4238	8.60009	14.3067	79.010102	#	HT
6262	1670	4	-0.8476	15.9022	21.564199	76.442101	#	OT
6263	1670	5	0.4238	15.8467	21.515699	75.445099	#	HT
6264	1670	5	0.4238	14.9816	21.5187	76.830101	#	HT
6265	1671	4	-0.8476	2.71725	2.32436	53.206101	#	OT
6266	1671	5	0.4238	2.52859	2.52378	52.244499	#	HT
6267	1671	5	0.4238	2.37974	1.40988	53.429299	#	HT
6268	1672	4	-0.8476	12.1814	28.0837	85.525101	#	OT
6269	1672	5	0.4238	12.0911	27.290701	86.127098	#	HT
6270	1672	5	0.4238	11.4248	28.093399	84.871102	#	HT
6271	1673	4	-0.8476	16.7211	27.747801	76.164101	#	OT
6272	1673	5	0.4238	16.695801	28.7363	76.313103	#	HT
6273	1673	5	0.4238	17.1654	27.3043	76.942101	#	HT
6274	1674	4	-0.8476	20.181299	17.188801	84.548104	#	OT
6275	1674	5	0.4238	20.5707	17.8769	83.936104	#	HT
6276	1674	5	0.4238	19.1998	17.106199	84.376099	#	HT
6277	1675	4	-0.8476	11.6439	21.2211	86.353104	#	OT
6278	1675	5	0.4238	11.294	22.1126	86.065102	#	HT
6279	1675	5	0.4238	10.9485	20.5214	86.190109	#	HT
6280	1676	4	-0.8476	8.03783	16.3048	75.372101	#	OT
6281	1676	5	0.4238	8.43194	16.063299	74.486099	#	HT
6282	1676	5	0.4238	7.64721	17.2241	75.324105	#	HT
6283	1677	4	-0.8476	0.416991	10.4286	75.331101	#	OT
6284	1677	5	0.4238	25.3559	11.1821	75.669106	#	HT
6285	1677	5	0.4238	1.21412	10.7973	74.853104	#	HT
6286	1678	4	-0.8476	4.89601	1.54747	78.567101	#	OT
6287	1678	5	0.4238	4.51932	0.700745	78.9431	#	HT
6288	1678	5	0.4238	4.26298	2.30116	78.744103	#	HT
6289	1679	4	-0.8476	24.1112	14.3393	77.963104	#	OT
6290	1679	5	0.4238	24.793699	13.7928	77.478104	#	HT
6291	1679	5	0.4238	23.7166	13.7975	78.705101	#	HT
6292	1680	4	-0.8476	2.45126	23.5368	79.395104	#	OT
6293	1680	5	0.4238	2.79348	24.4405	79.1381	#	HT
6294	1680	5	0.4238	3.11896	22.8403	79.133103	#	HT
6295	1681	4	-0.8476	15.1468	11.6798	37.157601	#	OT
6296	1681	5	0.4238	14.966	11.1382	36.336601	#	HT
6297	1681	5	0.4238	15.7384	12.4515	36.924401	#	HT
6298	1682	4	-0.8476	3.2937	27.5606	65.806099	#	OT
6299	1682	5	0.4238	3.7689	27.635099	64.9291	#	HT
6300	1682	5	0.4238	3.40928	28.41	66.321099	#	HT
6301	1683	4	-0.8476	15.0497	19.4484	37.712601	#	OT
6302	1683	5	0.4238	14.2104	19.677099	37.219506	#	HT
6303	1683	5	0.4238	15.4487	20.281401	38.095902	#	HT
6304	1684	4	-0.8476	2.8443	10.9172	19.791203	#	OT
6305	1684	5	0.4238	3.37508	10.8272	18.948502	#	HT
6306	1684	5	0.4238	1.96735	11.3526	19.587902	#	HT
6307	1685	4	-0.8476	7.34593	20.735001	10.371903	#	OT
6308	1685	5	0.4238	6.67941	20.9501	9.6581	#	HT
6309	1685	5	0.4238	6.89256	20.2397	11.112904	#	HT
6310	1686	4	-0.8476	2.59729	10.6986	1.129704	#	OT
6311	1686	5	0.4238	2.86218	9.73481	1.161404	#	HT
6312	1686	5	0.4238	1.66175	10.776	0.785103	#	HT
6313	1687	4	-0.8476	18.747601	9.99	70.673104	#	OT
6314	1687	5	0.4238	18.411301	10.8671	70.330101	#	HT
6315	1687	5	0.4238	18.8985	10.0534	71.659104	#	HT
6316	1688	4	-0.8476	5.49964	29.3815	72.426102	#	OT
6317	1688	5	0.4238	4.90948	0.491324	73.010102	#	HT
6318	1688	5	0.4238	5.11624	28.4613	72.347099	#	HT
6319	1689	4	-0.8476	17.120199	18.1521	79.670105	#	OT
6320	1689	5	0.4238	17.4674	18.590799	80.4981	#	HT
6321	1689	5	0.4238	17.139799	18.805901	78.913101	#	HT
6322	1690	4	-0.8476	4.58297	15.6417	80.481102	#	OT
6323	1690	5	0.4238	5.52247	15.4057	80.233101	#	HT
6324	1690	5	0.4238	4.07233	15.8878	79.658104	#	HT
6325	1691	4	-0.8476	12.8978	12.6007	32.140099	#	OT
6326	1691	5	0.4238	12.8007	12.8218	31.169701	#	HT
6327	1691	5	0.4238	13.18	11.6463	32.2379	#	HT
6328	1692	4	-0.8476	20.448999	22.746799	21.241101	#	OT
6329	1692	5	0.4238	20.1903	23.556	20.713703	#	HT
6330	1692	5	0.4238	20.654301	23.014099	22.182602	#	HT
6331	1693	4	-0.8476	1.02254	8.42093	60.2481	#	OT
6332	1693	5	0.4238	1.60693	9.21147	60.431099	#	HT
6333	1693	5	0.4238	0.999697	7.82946	61.0541	#	HT
6334	1694	4	-0.8476	2.46358	6.18946	76.352104	#	OT
6335	1694	5	0.4238	1.88081	6.97893	76.545105	#	HT
6336	1694	5	0.4238	2.06284	5.6526	75.6101	#	HT
6337	1695	6	1	2.04379	4.79984	35.741204	#	LI
6338	1696	6	1	4.22555	14.7751	1.441803	#	LI
6339	1697	6	1	2.19733	24.535101	5.166302	#	LI
6340	1698	6	1	6.853	12.9106	35.3321	#	LI
6341	1699	6	1	24.5369	8.65689	59.844101	#	LI
6342	1700	6	1	19.5644	6.20763	1.5583	#	LI
6343	1701	6	1	8.83049	8.36445	5.755402	#	LI
6344	1702	6	1	0.577419	10.7548	8.2677	#	LI
6345	1703	6	1	10.023	19.9498	43.104103	#	LI
6346	1704	6	1	15.6498	0.183546	27.687401	#	LI
6347	1705	6	1	2.83738	24.4681	22.1614	#	LI
6348	1706	6	1	1.09132	16.705601	37.627403	#	LI
6349	1707	6	1	3.42004	26.5516	34.654602	#	LI
6350	1708	6	1	14.4576	26.3234	21.402104	#	LI
6351	1709	6	1	24.556999	18.037001	3.970101	#	LI
6352	1710	6	1	12.2554	10.5892	43.281502	#	LI
6353	1711	6	1	1.86765	9.48385	26.1176	#	LI
6354	1712	6	1	5.12403	6.13867	3.716301	#	LI
6355	1713	6	1	12.2589	9.52392	21.962101	#	LI
6356	1714	6	1	23.276199	25.8158	25.522904	#	LI
6357	1715	6	1	15.6536	12.3424	81.418099	#	LI
6358	1716	6	1	22.632999	16.032101	46.223999	#	LI
6359	1717	6	1	10.9293	14.2503	7.203602	#	LI
6360	1718	6	1	18.246099	27.1301	36.093605	#	LI
6361	1719	6	1	17.3885	15.1589	8.190201	#	LI
6362	1720	6	1	7.04941	16.600401	8.109402	#	LI
6363	1721	6	1	18.4217	4.27578	12.612004	#	LI
6364	1722	6	1	0.634055	7.9356	19.933903	#	LI
6365	1723	6	1	23.736	17.989901	34.426003	#	LI
6366	1724	6	1	7.19935	1.08072	15.156101	#	LI
6367	1725	7	-1	22.3703	21.7519	2.817501	#	CLA
6368	1726	7	-1	19.366699	0.960716	32.936005	#	CLA
6369	1727	7	-1	20.3901	12.4958	25.521202	#	CLA
6370	1728	7	-1	7.26082	19.433901	29.666001	#	CLA
6371	1729	7	-1	5.20921	7.50403	26.231903	#	CLA
6372	1730	7	-1	3.97837	19.1457	34.340004	#	CLA
6373	1731	7	-1	13.9999	9.78287	32.141602	#	CLA
6374	1732	7	-1	21.4498	21.421801	10.575302	#	CLA
6375	1733	7	-1	7.80546	23.069	22.408005	#	CLA
6376	1734	7	-1	10.895	29.3918	22.087902	#	CLA
6377	1735	7	-1	6.72233	25.2071	4.708203	#	CLA
6378	1736	7	-1	10.9517	5.02214	19.913403	#	CLA
6379	1737	7	-1	19.106701	27.3962	27.417404	#	CLA
6380	1738	7	-1	11.1329	27.735201	3.879803	#	CLA
6381	1739	7	-1	4.193	10.9383	32.608505	#	CLA
6382	1740	7	-1	14.8643	24.6798	38.390503	#	CLA
6383	1741	7	-1	21.4324	16.947901	8.846802	#	CLA
6384	1742	7	-1	16.143101	7.97088	23.284599	#	CLA
6385	1743	7	-1	9.67477	19.117001	33.483902	#	CLA
6386	1744	7	-1	22.4452	8.77792	3.989002	#	CLA
6387	1745	7	-1	14.7227	22.828501	3.6945	#	CLA
6388	1746	7	-1	16.246099	8.55675	13.873303	#	CLA
6389	1747	7	-1	21.4037	3.01346	22.756203	#	CLA
6390	1748	7	-1	0.186723	27.6098	31.678101	#	CLA
6391	1749	7	-1	25.396299	11.683	38.585304	#	CLA
6392	1750	7	-1	16.848301	3.82757	21.804802	#	CLA
6393	1751	7	-1	19.003799	27.501699	20.471203	#	CLA
6394	1752	7	-1	9.40253	29.0767	32.132401	#	CLA
6395	1753	7	-1	0.410582	14.8002	6.978703	#	CLA
6396	1754	7	-1	2.2082	27.4203	43.8844	#	CLA
6397	1755	7	-1	14.2768	25.256201	9.843804	#	CLA
6398	1756	7	-1	4.70874	21.4793	78.352104	#	CLA
6399	1757	7	-1	5.01516	19.5975	15.406304	#	CLA
6400	1758	7	-1	15.9592	18.1374	33.410904	#	CLA
6401	1759	7	-1	20.319401	20.355499	72.8191	#	CLA
6402	1760	7	-1	10.5641	14.0551	13.083401	#	CLA
6403	1761	7	-1	22.945	29.0518	43.100601	#	CLA
6404	1762	7	-1	4.27135	14.0872	10.851101	#	CLA
6405	1763	7	-1	20.4932	22.1693	26.624199	#	CLA
6406	1764	7	-1	1.93337	25.2908	26.695	#	CLA
6407	1765	7	-1	11.3383	18.766701	8.716503	#	CLA
6408	1766	7	-1	3.39789	10.8615	16.408203	#	CLA
6409	1767	7	-1	0.847897	19.4977	7.8092	#	CLA
6410	1768	7	-1	14.9909	20.1903	6.295502	#	CLA
6411	1769	7	-1	10.6427	8.38227	38.324402	#	CLA
6412	1770	7	-1	4.5963	6.14569	30.422203	#	CLA
6413	1771	7	-1	23.179899	25.6637	18.769802	#	CLA
6414	1772	7	-1	4.26039	0.179786	24.665405	#	CLA
6415	1773	7	-1	4.52199	20.381201	27.658203	#	CLA
6416	1774	7	-1	5.74932	1.31219	19.341301	#	CLA
6417	1775	7	-1	2.31798	29.3018	9.010201	#	CLA
6418	1776	7	-1	10.7326	22.830299	17.935002	#	CLA
6419	1777	7	-1	24.3978	4.08497	3.601601	#	CLA
6420	1778	7	-1	21.087299	6.60307	9.5219	#	CLA
6421	1779	7	-1	23.9757	18.499701	13.870701	#	CLA
6422	1780	7	-1	16.7694	15.7072	20.883003	#	CLA
6423	1781	7	-1	18.037901	23.076799	16.336601	#	CLA
6424	1782	7	-1	9.85773	26.4575	27.4963	#	CLA
6425	1783	7	-1	2.4056	26.744699	18.634903	#	CLA
6426	1784	7	-1	10.9288	19.3538	21.812302	#	CLA
6427	1785	7	-1	14.6297	15.5913	25.747002	#	CLA
6428	1786	7	-1	2.28907	20.2183	13.3666	#	CLA
6429	1787	7	-1	24.5179	20.121901	20.839501	#	CLA
6430	1788	7	-1	7.182	24.8887	14.6525	#	CLA
6431	1789	7	-1	12.4201	14.9495	2.581703	#	CLA
6432	1790	7	-1	5.13085	9.85071	7.888001	#	CLA
6433	1791	7	-1	25.1658	7.76305	14.248402	#	CLA
6434	1792	7	-1	21.3253	6.2773	17.185803	#	CLA
6435	1793	7	-1	12.7217	8.47536	3.756001	#	CLA
6436	1794	7	-1	8.83965	7.8017	29.863304	#	CLA
6437	1795	7	-1	19.6444	22.243999	32.773903	#	CLA
6438	1796	7	-1	7.79971	10.6264	22.999504	#	CLA
6439	1797	7	-1	4.43289	15.1852	29.6026	#	CLA
6440	1798	7	-1	1.40104	15.8734	19.326603	#	CLA
6441	1799	7	-1	18.0987	1.92078	17.527001	#	CLA
6442	1800	7	-1	22.218201	9.02617	21.189701	#	CLA
6443	1801	7	-1	10.0542	5.27198	9.482701	#	CLA
6444	1802	7	-1	24.9674	28.6306	37.293999	#	CLA
6445	1803	7	-1	13.1129	23.463301	25.112503	#	CLA
6446	1804	7	-1	15.8608	0.166086	11.847401	#	CLA
6447	1805	7	-1	23.8277	27.3563	14.326901	#	CLA
6448	1806	7	-1	11.2286	3.47896	15.055	#	CLA
6449	1807	7	-1	0.059808	22.8634	32.837601	#	CLA
6450	1808	7	-1	24.7453	15.2659	42.888001	#	CLA
6451	1809	7	-1	10.0546	17.8554	58.051804	#	CLA
6452	1810	7	-1	5.61606	20.167801	19.5121	#	CLA
6453	1811	7	-1	11.445	16.4144	29.923699	#	CLA
6454	1812	7	-1	23.6868	10.3094	28.631699	#	CLA
6455	1813	7	-1	25.46747204	28.70280146	12.87449954	#	CLA
6456	1814	7	-1	0.088891616	0.076455161	22.68702511	#	CLA
6457	1815	7	-1	1.390589071	16.12571982	34.78464335	#	CLA
6458	1816	8	2	8.81093	18.829901	22.919602	#	MG
6459	1817	8	2	2.60172	5.68363	11.820202	#	MG
6460	1818	8	2	7.0634	2.40077	29.3498	#	MG
6461	1819	8	2	25.027201	28.0977	39.539398	#	MG
6462	1820	8	2	6.35932	22.313499	18.510002	#	MG
6463	1821	8	2	2.81104	19.1229	15.623203	#	MG
6464	1822	8	2	5.42164	3.96861	23.126503	#	MG
6465	1823	8	2	15.1165	4.43087	20.2943	#	MG
6466	1824	8	2	13.2356	21.5119	5.331703	#	MG
6467	1825	8	2	9.06624	24.7792	23.616905	#	MG
6468	1826	8	2	22.059999	24.681101	30.3051	#	MG
6469	1827	8	2	20.162201	22.089701	16.595402	#	MG
6470	1828	8	2	21.2948	1.33852	21.1012	#	MG
6471	1829	8	2	19.1479	16.4981	27.413704	#	MG
6472	1830	8	2	18.927999	22.759701	5.560303	#	MG
6473	1831	8	2	20.204399	7.58791	21.554302	#	MG
6474	1832	8	2	10.5046	17.8871	31.713303	#	MG
6475	1833	8	2	24.3494	17.7694	11.712902	#	MG
6476	1834	8	2	7.33054	9.60651	30.015801	#	MG
6477	1835	8	2	0.443541	26.4345	14.883503	#	MG
6478	1836	8	2	21.381201	13.4961	21.097401	#	MG
6479	1837	8	2	16.1017	25.385599	11.084801	#	MG
6480	1838	8	2	11.5608	1.33247	11.133301	#	MG
6481	1839	8	2	5.06845	20.4792	29.887001	#	MG
6482	1840	8	2	2.76235	16.4123	25.544701	#	MG
6483	1841	8	2	8.76256	11.2233	15.547802	#	MG
6484	1842	8	2	12.7032	23.3498	31.869003	#	MG
6485	1843	8	2	20.3109	7.01139	28.986305	#	MG
6486	1844	8	2	12.253	19.378201	17.379002	#	MG

Bonds

1   1   1 2     # N_2 C_R (2)
2   2   1 127     # N_2 N_2 (1)
3   3   2 3     # C_R H_ (1)
4   4   2 4     # C_R C_R (1)
5   4   4 5     # C_R C_R (-2)
6   4   4 11     # C_R C_R (-2)
7   4   5 16     # C_R C_R (-2)
8   3   5 18     # C_R H_ (1)
9   3   11 6     # C_R H_ (1)
10   1   7 8     # N_2 C_R (2)
11   2   7 25     # N_2 N_2 (1)
12   3   8 9     # C_R H_ (1)
13   4   8 10     # C_R C_R (1)
14   4   10 11     # C_R C_R (-2)
15   4   10 17     # C_R C_R (-2)
16   3   17 12     # C_R H_ (1)
17   1   13 14     # N_2 C_R (2)
18   2   13 103     # N_2 N_2 (1)
19   3   14 15     # C_R H_ (1)
20   4   14 16     # C_R C_R (1)
21   4   16 17     # C_R C_R (-2)
22   1   19 20     # N_2 C_R (2)
23   2   19 37     # N_2 N_2 (1)
24   3   20 21     # C_R H_ (1)
25   4   20 22     # C_R C_R (1)
26   4   22 23     # C_R C_R (-2)
27   4   22 29     # C_R C_R (-2)
28   4   23 34     # C_R C_R (-2)
29   3   23 36     # C_R H_ (1)
30   3   29 24     # C_R H_ (1)
31   1   25 26     # N_2 C_R (2)
32   3   26 27     # C_R H_ (1)
33   4   26 28     # C_R C_R (1)
34   4   28 29     # C_R C_R (-2)
35   4   28 35     # C_R C_R (-2)
36   3   35 30     # C_R H_ (1)
37   1   31 32     # N_2 C_R (2)
38   2   31 85     # N_2 N_2 (1)
39   3   32 33     # C_R H_ (1)
40   4   32 34     # C_R C_R (1)
41   4   34 35     # C_R C_R (-2)
42   1   37 38     # N_2 C_R (2)
43   3   38 39     # C_R H_ (1)
44   4   38 40     # C_R C_R (1)
45   4   40 41     # C_R C_R (-2)
46   4   40 47     # C_R C_R (-2)
47   4   41 52     # C_R C_R (-2)
48   3   41 54     # C_R H_ (1)
49   3   47 42     # C_R H_ (1)
50   1   43 44     # N_2 C_R (2)
51   2   43 61     # N_2 N_2 (1)
52   3   44 45     # C_R H_ (1)
53   4   44 46     # C_R C_R (1)
54   4   46 47     # C_R C_R (-2)
55   4   46 53     # C_R C_R (-2)
56   3   53 48     # C_R H_ (1)
57   1   49 50     # N_2 C_R (2)
58   2   49 139     # N_2 N_2 (1)
59   3   50 51     # C_R H_ (1)
60   4   50 52     # C_R C_R (1)
61   4   52 53     # C_R C_R (-2)
62   1   55 56     # N_2 C_R (2)
63   2   55 73     # N_2 N_2 (1)
64   3   56 57     # C_R H_ (1)
65   4   56 58     # C_R C_R (1)
66   4   58 59     # C_R C_R (-2)
67   4   58 65     # C_R C_R (-2)
68   4   59 70     # C_R C_R (-2)
69   3   59 72     # C_R H_ (1)
70   3   65 60     # C_R H_ (1)
71   1   61 62     # N_2 C_R (2)
72   3   62 63     # C_R H_ (1)
73   4   62 64     # C_R C_R (1)
74   4   64 65     # C_R C_R (-2)
75   4   64 71     # C_R C_R (-2)
76   3   71 66     # C_R H_ (1)
77   1   67 68     # N_2 C_R (2)
78   2   67 121     # N_2 N_2 (1)
79   3   68 69     # C_R H_ (1)
80   4   68 70     # C_R C_R (1)
81   4   70 71     # C_R C_R (-2)
82   1   73 74     # N_2 C_R (2)
83   3   74 75     # C_R H_ (1)
84   4   74 76     # C_R C_R (1)
85   4   76 77     # C_R C_R (-2)
86   4   76 83     # C_R C_R (-2)
87   4   77 88     # C_R C_R (-2)
88   3   77 90     # C_R H_ (1)
89   3   83 78     # C_R H_ (1)
90   1   79 80     # N_2 C_R (2)
91   2   79 97     # N_2 N_2 (1)
92   3   80 81     # C_R H_ (1)
93   4   80 82     # C_R C_R (1)
94   4   82 83     # C_R C_R (-2)
95   4   82 89     # C_R C_R (-2)
96   3   89 84     # C_R H_ (1)
97   1   85 86     # N_2 C_R (2)
98   3   86 87     # C_R H_ (1)
99   4   86 88     # C_R C_R (1)
100   4   88 89     # C_R C_R (-2)
101   1   91 92     # N_2 C_R (2)
102   2   91 109     # N_2 N_2 (1)
103   3   92 93     # C_R H_ (1)
104   4   92 94     # C_R C_R (1)
105   4   94 95     # C_R C_R (-2)
106   4   94 101     # C_R C_R (-2)
107   4   95 106     # C_R C_R (-2)
108   3   95 108     # C_R H_ (1)
109   3   101 96     # C_R H_ (1)
110   1   97 98     # N_2 C_R (2)
111   3   98 99     # C_R H_ (1)
112   4   98 100     # C_R C_R (1)
113   4   100 101     # C_R C_R (-2)
114   4   100 107     # C_R C_R (-2)
115   3   107 102     # C_R H_ (1)
116   1   103 104     # N_2 C_R (2)
117   3   104 105     # C_R H_ (1)
118   4   104 106     # C_R C_R (1)
119   4   106 107     # C_R C_R (-2)
120   1   109 110     # N_2 C_R (2)
121   3   110 111     # C_R H_ (1)
122   4   110 112     # C_R C_R (1)
123   4   112 113     # C_R C_R (-2)
124   4   112 119     # C_R C_R (-2)
125   4   113 124     # C_R C_R (-2)
126   3   113 126     # C_R H_ (1)
127   3   119 114     # C_R H_ (1)
128   1   115 116     # N_2 C_R (2)
129   2   115 133     # N_2 N_2 (1)
130   3   116 117     # C_R H_ (1)
131   4   116 118     # C_R C_R (1)
132   4   118 119     # C_R C_R (-2)
133   4   118 125     # C_R C_R (-2)
134   3   125 120     # C_R H_ (1)
135   1   121 122     # N_2 C_R (2)
136   3   122 123     # C_R H_ (1)
137   4   122 124     # C_R C_R (1)
138   4   124 125     # C_R C_R (-2)
139   1   127 128     # N_2 C_R (2)
140   3   128 129     # C_R H_ (1)
141   4   128 130     # C_R C_R (1)
142   4   130 131     # C_R C_R (-2)
143   4   130 137     # C_R C_R (-2)
144   4   131 142     # C_R C_R (-2)
145   3   131 144     # C_R H_ (1)
146   3   137 132     # C_R H_ (1)
147   1   133 134     # N_2 C_R (2)
148   3   134 135     # C_R H_ (1)
149   4   134 136     # C_R C_R (1)
150   4   136 137     # C_R C_R (-2)
151   4   136 143     # C_R C_R (-2)
152   3   143 138     # C_R H_ (1)
153   1   139 140     # N_2 C_R (2)
154   3   140 141     # C_R H_ (1)
155   4   140 142     # C_R C_R (1)
156   4   142 143     # C_R C_R (-2)
157   1   145 146     # N_2 C_R (2)
158   2   145 271     # N_2 N_2 (1)
159   3   146 147     # C_R H_ (1)
160   4   146 148     # C_R C_R (1)
161   4   148 149     # C_R C_R (-2)
162   4   148 155     # C_R C_R (-2)
163   4   149 160     # C_R C_R (-2)
164   3   149 162     # C_R H_ (1)
165   3   155 150     # C_R H_ (1)
166   1   151 152     # N_2 C_R (2)
167   2   151 169     # N_2 N_2 (1)
168   3   152 153     # C_R H_ (1)
169   4   152 154     # C_R C_R (1)
170   4   154 155     # C_R C_R (-2)
171   4   154 161     # C_R C_R (-2)
172   3   161 156     # C_R H_ (1)
173   1   157 158     # N_2 C_R (2)
174   2   157 247     # N_2 N_2 (1)
175   3   158 159     # C_R H_ (1)
176   4   158 160     # C_R C_R (1)
177   4   160 161     # C_R C_R (-2)
178   1   163 164     # N_2 C_R (2)
179   2   163 181     # N_2 N_2 (1)
180   3   164 165     # C_R H_ (1)
181   4   164 166     # C_R C_R (1)
182   4   166 167     # C_R C_R (-2)
183   4   166 173     # C_R C_R (-2)
184   4   167 178     # C_R C_R (-2)
185   3   167 180     # C_R H_ (1)
186   3   173 168     # C_R H_ (1)
187   1   169 170     # N_2 C_R (2)
188   3   170 171     # C_R H_ (1)
189   4   170 172     # C_R C_R (1)
190   4   172 173     # C_R C_R (-2)
191   4   172 179     # C_R C_R (-2)
192   3   179 174     # C_R H_ (1)
193   1   175 176     # N_2 C_R (2)
194   2   175 229     # N_2 N_2 (1)
195   3   176 177     # C_R H_ (1)
196   4   176 178     # C_R C_R (1)
197   4   178 179     # C_R C_R (-2)
198   1   181 182     # N_2 C_R (2)
199   3   182 183     # C_R H_ (1)
200   4   182 184     # C_R C_R (1)
201   4   184 185     # C_R C_R (-2)
202   4   184 191     # C_R C_R (-2)
203   4   185 196     # C_R C_R (-2)
204   3   185 198     # C_R H_ (1)
205   3   191 186     # C_R H_ (1)
206   1   187 188     # N_2 C_R (2)
207   2   187 205     # N_2 N_2 (1)
208   3   188 189     # C_R H_ (1)
209   4   188 190     # C_R C_R (1)
210   4   190 191     # C_R C_R (-2)
211   4   190 197     # C_R C_R (-2)
212   3   197 192     # C_R H_ (1)
213   1   193 194     # N_2 C_R (2)
214   2   193 283     # N_2 N_2 (1)
215   3   194 195     # C_R H_ (1)
216   4   194 196     # C_R C_R (1)
217   4   196 197     # C_R C_R (-2)
218   1   199 200     # N_2 C_R (2)
219   2   199 217     # N_2 N_2 (1)
220   3   200 201     # C_R H_ (1)
221   4   200 202     # C_R C_R (1)
222   4   202 203     # C_R C_R (-2)
223   4   202 209     # C_R C_R (-2)
224   4   203 214     # C_R C_R (-2)
225   3   203 216     # C_R H_ (1)
226   3   209 204     # C_R H_ (1)
227   1   205 206     # N_2 C_R (2)
228   3   206 207     # C_R H_ (1)
229   4   206 208     # C_R C_R (1)
230   4   208 209     # C_R C_R (-2)
231   4   208 215     # C_R C_R (-2)
232   3   215 210     # C_R H_ (1)
233   1   211 212     # N_2 C_R (2)
234   2   211 265     # N_2 N_2 (1)
235   3   212 213     # C_R H_ (1)
236   4   212 214     # C_R C_R (1)
237   4   214 215     # C_R C_R (-2)
238   1   217 218     # N_2 C_R (2)
239   3   218 219     # C_R H_ (1)
240   4   218 220     # C_R C_R (1)
241   4   220 221     # C_R C_R (-2)
242   4   220 227     # C_R C_R (-2)
243   4   221 232     # C_R C_R (-2)
244   3   221 234     # C_R H_ (1)
245   3   227 222     # C_R H_ (1)
246   1   223 224     # N_2 C_R (2)
247   2   223 241     # N_2 N_2 (1)
248   3   224 225     # C_R H_ (1)
249   4   224 226     # C_R C_R (1)
250   4   226 227     # C_R C_R (-2)
251   4   226 233     # C_R C_R (-2)
252   3   233 228     # C_R H_ (1)
253   1   229 230     # N_2 C_R (2)
254   3   230 231     # C_R H_ (1)
255   4   230 232     # C_R C_R (1)
256   4   232 233     # C_R C_R (-2)
257   1   235 236     # N_2 C_R (2)
258   2   235 253     # N_2 N_2 (1)
259   3   236 237     # C_R H_ (1)
260   4   236 238     # C_R C_R (1)
261   4   238 239     # C_R C_R (-2)
262   4   238 245     # C_R C_R (-2)
263   4   239 250     # C_R C_R (-2)
264   3   239 252     # C_R H_ (1)
265   3   245 240     # C_R H_ (1)
266   1   241 242     # N_2 C_R (2)
267   3   242 243     # C_R H_ (1)
268   4   242 244     # C_R C_R (1)
269   4   244 245     # C_R C_R (-2)
270   4   244 251     # C_R C_R (-2)
271   3   251 246     # C_R H_ (1)
272   1   247 248     # N_2 C_R (2)
273   3   248 249     # C_R H_ (1)
274   4   248 250     # C_R C_R (1)
275   4   250 251     # C_R C_R (-2)
276   1   253 254     # N_2 C_R (2)
277   3   254 255     # C_R H_ (1)
278   4   254 256     # C_R C_R (1)
279   4   256 257     # C_R C_R (-2)
280   4   256 263     # C_R C_R (-2)
281   4   257 268     # C_R C_R (-2)
282   3   257 270     # C_R H_ (1)
283   3   263 258     # C_R H_ (1)
284   1   259 260     # N_2 C_R (2)
285   2   259 277     # N_2 N_2 (1)
286   3   260 261     # C_R H_ (1)
287   4   260 262     # C_R C_R (1)
288   4   262 263     # C_R C_R (-2)
289   4   262 269     # C_R C_R (-2)
290   3   269 264     # C_R H_ (1)
291   1   265 266     # N_2 C_R (2)
292   3   266 267     # C_R H_ (1)
293   4   266 268     # C_R C_R (1)
294   4   268 269     # C_R C_R (-2)
295   1   271 272     # N_2 C_R (2)
296   3   272 273     # C_R H_ (1)
297   4   272 274     # C_R C_R (1)
298   4   274 275     # C_R C_R (-2)
299   4   274 281     # C_R C_R (-2)
300   4   275 286     # C_R C_R (-2)
301   3   275 288     # C_R H_ (1)
302   3   281 276     # C_R H_ (1)
303   1   277 278     # N_2 C_R (2)
304   3   278 279     # C_R H_ (1)
305   4   278 280     # C_R C_R (1)
306   4   280 281     # C_R C_R (-2)
307   4   280 287     # C_R C_R (-2)
308   3   287 282     # C_R H_ (1)
309   1   283 284     # N_2 C_R (2)
310   3   284 285     # C_R H_ (1)
311   4   284 286     # C_R C_R (1)
312   4   286 287     # C_R C_R (-2)
313   1   289 290     # N_2 C_R (2)
314   2   289 415     # N_2 N_2 (1)
315   3   290 291     # C_R H_ (1)
316   4   290 292     # C_R C_R (1)
317   4   292 293     # C_R C_R (-2)
318   4   292 299     # C_R C_R (-2)
319   4   293 304     # C_R C_R (-2)
320   3   293 306     # C_R H_ (1)
321   3   299 294     # C_R H_ (1)
322   1   295 296     # N_2 C_R (2)
323   2   295 313     # N_2 N_2 (1)
324   3   296 297     # C_R H_ (1)
325   4   296 298     # C_R C_R (1)
326   4   298 299     # C_R C_R (-2)
327   4   298 305     # C_R C_R (-2)
328   3   305 300     # C_R H_ (1)
329   1   301 302     # N_2 C_R (2)
330   2   301 391     # N_2 N_2 (1)
331   3   302 303     # C_R H_ (1)
332   4   302 304     # C_R C_R (1)
333   4   304 305     # C_R C_R (-2)
334   1   307 308     # N_2 C_R (2)
335   2   307 325     # N_2 N_2 (1)
336   3   308 309     # C_R H_ (1)
337   4   308 310     # C_R C_R (1)
338   4   310 311     # C_R C_R (-2)
339   4   310 317     # C_R C_R (-2)
340   4   311 322     # C_R C_R (-2)
341   3   311 324     # C_R H_ (1)
342   3   317 312     # C_R H_ (1)
343   1   313 314     # N_2 C_R (2)
344   3   314 315     # C_R H_ (1)
345   4   314 316     # C_R C_R (1)
346   4   316 317     # C_R C_R (-2)
347   4   316 323     # C_R C_R (-2)
348   3   323 318     # C_R H_ (1)
349   1   319 320     # N_2 C_R (2)
350   2   319 373     # N_2 N_2 (1)
351   3   320 321     # C_R H_ (1)
352   4   320 322     # C_R C_R (1)
353   4   322 323     # C_R C_R (-2)
354   1   325 326     # N_2 C_R (2)
355   3   326 327     # C_R H_ (1)
356   4   326 328     # C_R C_R (1)
357   4   328 329     # C_R C_R (-2)
358   4   328 335     # C_R C_R (-2)
359   4   329 340     # C_R C_R (-2)
360   3   329 342     # C_R H_ (1)
361   3   335 330     # C_R H_ (1)
362   1   331 332     # N_2 C_R (2)
363   2   331 349     # N_2 N_2 (1)
364   3   332 333     # C_R H_ (1)
365   4   332 334     # C_R C_R (1)
366   4   334 335     # C_R C_R (-2)
367   4   334 341     # C_R C_R (-2)
368   3   341 336     # C_R H_ (1)
369   1   337 338     # N_2 C_R (2)
370   2   337 427     # N_2 N_2 (1)
371   3   338 339     # C_R H_ (1)
372   4   338 340     # C_R C_R (1)
373   4   340 341     # C_R C_R (-2)
374   1   343 344     # N_2 C_R (2)
375   2   343 361     # N_2 N_2 (1)
376   3   344 345     # C_R H_ (1)
377   4   344 346     # C_R C_R (1)
378   4   346 347     # C_R C_R (-2)
379   4   346 353     # C_R C_R (-2)
380   4   347 358     # C_R C_R (-2)
381   3   347 360     # C_R H_ (1)
382   3   353 348     # C_R H_ (1)
383   1   349 350     # N_2 C_R (2)
384   3   350 351     # C_R H_ (1)
385   4   350 352     # C_R C_R (1)
386   4   352 353     # C_R C_R (-2)
387   4   352 359     # C_R C_R (-2)
388   3   359 354     # C_R H_ (1)
389   1   355 356     # N_2 C_R (2)
390   2   355 409     # N_2 N_2 (1)
391   3   356 357     # C_R H_ (1)
392   4   356 358     # C_R C_R (1)
393   4   358 359     # C_R C_R (-2)
394   1   361 362     # N_2 C_R (2)
395   3   362 363     # C_R H_ (1)
396   4   362 364     # C_R C_R (1)
397   4   364 365     # C_R C_R (-2)
398   4   364 371     # C_R C_R (-2)
399   4   365 376     # C_R C_R (-2)
400   3   365 378     # C_R H_ (1)
401   3   371 366     # C_R H_ (1)
402   1   367 368     # N_2 C_R (2)
403   2   367 385     # N_2 N_2 (1)
404   3   368 369     # C_R H_ (1)
405   4   368 370     # C_R C_R (1)
406   4   370 371     # C_R C_R (-2)
407   4   370 377     # C_R C_R (-2)
408   3   377 372     # C_R H_ (1)
409   1   373 374     # N_2 C_R (2)
410   3   374 375     # C_R H_ (1)
411   4   374 376     # C_R C_R (1)
412   4   376 377     # C_R C_R (-2)
413   1   379 380     # N_2 C_R (2)
414   2   379 397     # N_2 N_2 (1)
415   3   380 381     # C_R H_ (1)
416   4   380 382     # C_R C_R (1)
417   4   382 383     # C_R C_R (-2)
418   4   382 389     # C_R C_R (-2)
419   4   383 394     # C_R C_R (-2)
420   3   383 396     # C_R H_ (1)
421   3   389 384     # C_R H_ (1)
422   1   385 386     # N_2 C_R (2)
423   3   386 387     # C_R H_ (1)
424   4   386 388     # C_R C_R (1)
425   4   388 389     # C_R C_R (-2)
426   4   388 395     # C_R C_R (-2)
427   3   395 390     # C_R H_ (1)
428   1   391 392     # N_2 C_R (2)
429   3   392 393     # C_R H_ (1)
430   4   392 394     # C_R C_R (1)
431   4   394 395     # C_R C_R (-2)
432   1   397 398     # N_2 C_R (2)
433   3   398 399     # C_R H_ (1)
434   4   398 400     # C_R C_R (1)
435   4   400 401     # C_R C_R (-2)
436   4   400 407     # C_R C_R (-2)
437   4   401 412     # C_R C_R (-2)
438   3   401 414     # C_R H_ (1)
439   3   407 402     # C_R H_ (1)
440   1   403 404     # N_2 C_R (2)
441   2   403 421     # N_2 N_2 (1)
442   3   404 405     # C_R H_ (1)
443   4   404 406     # C_R C_R (1)
444   4   406 407     # C_R C_R (-2)
445   4   406 413     # C_R C_R (-2)
446   3   413 408     # C_R H_ (1)
447   1   409 410     # N_2 C_R (2)
448   3   410 411     # C_R H_ (1)
449   4   410 412     # C_R C_R (1)
450   4   412 413     # C_R C_R (-2)
451   1   415 416     # N_2 C_R (2)
452   3   416 417     # C_R H_ (1)
453   4   416 418     # C_R C_R (1)
454   4   418 419     # C_R C_R (-2)
455   4   418 425     # C_R C_R (-2)
456   4   419 430     # C_R C_R (-2)
457   3   419 432     # C_R H_ (1)
458   3   425 420     # C_R H_ (1)
459   1   421 422     # N_2 C_R (2)
460   3   422 423     # C_R H_ (1)
461   4   422 424     # C_R C_R (1)
462   4   424 425     # C_R C_R (-2)
463   4   424 431     # C_R C_R (-2)
464   3   431 426     # C_R H_ (1)
465   1   427 428     # N_2 C_R (2)
466   3   428 429     # C_R H_ (1)
467   4   428 430     # C_R C_R (1)
468   4   430 431     # C_R C_R (-2)
469   1   433 434     # N_2 C_R (2)
470   2   433 559     # N_2 N_2 (1)
471   3   434 435     # C_R H_ (1)
472   4   434 436     # C_R C_R (1)
473   4   436 437     # C_R C_R (-2)
474   4   436 443     # C_R C_R (-2)
475   4   437 448     # C_R C_R (-2)
476   3   437 450     # C_R H_ (1)
477   3   443 438     # C_R H_ (1)
478   1   439 440     # N_2 C_R (2)
479   2   439 457     # N_2 N_2 (1)
480   3   440 441     # C_R H_ (1)
481   4   440 442     # C_R C_R (1)
482   4   442 443     # C_R C_R (-2)
483   4   442 449     # C_R C_R (-2)
484   3   449 444     # C_R H_ (1)
485   1   445 446     # N_2 C_R (2)
486   2   445 535     # N_2 N_2 (1)
487   3   446 447     # C_R H_ (1)
488   4   446 448     # C_R C_R (1)
489   4   448 449     # C_R C_R (-2)
490   1   451 452     # N_2 C_R (2)
491   2   451 469     # N_2 N_2 (1)
492   3   452 453     # C_R H_ (1)
493   4   452 454     # C_R C_R (1)
494   4   454 455     # C_R C_R (-2)
495   4   454 461     # C_R C_R (-2)
496   4   455 466     # C_R C_R (-2)
497   3   455 468     # C_R H_ (1)
498   3   461 456     # C_R H_ (1)
499   1   457 458     # N_2 C_R (2)
500   3   458 459     # C_R H_ (1)
501   4   458 460     # C_R C_R (1)
502   4   460 461     # C_R C_R (-2)
503   4   460 467     # C_R C_R (-2)
504   3   467 462     # C_R H_ (1)
505   1   463 464     # N_2 C_R (2)
506   2   463 517     # N_2 N_2 (1)
507   3   464 465     # C_R H_ (1)
508   4   464 466     # C_R C_R (1)
509   4   466 467     # C_R C_R (-2)
510   1   469 470     # N_2 C_R (2)
511   3   470 471     # C_R H_ (1)
512   4   470 472     # C_R C_R (1)
513   4   472 473     # C_R C_R (-2)
514   4   472 479     # C_R C_R (-2)
515   4   473 484     # C_R C_R (-2)
516   3   473 486     # C_R H_ (1)
517   3   479 474     # C_R H_ (1)
518   1   475 476     # N_2 C_R (2)
519   2   475 493     # N_2 N_2 (1)
520   3   476 477     # C_R H_ (1)
521   4   476 478     # C_R C_R (1)
522   4   478 479     # C_R C_R (-2)
523   4   478 485     # C_R C_R (-2)
524   3   485 480     # C_R H_ (1)
525   1   481 482     # N_2 C_R (2)
526   2   481 571     # N_2 N_2 (1)
527   3   482 483     # C_R H_ (1)
528   4   482 484     # C_R C_R (1)
529   4   484 485     # C_R C_R (-2)
530   1   487 488     # N_2 C_R (2)
531   2   487 505     # N_2 N_2 (1)
532   3   488 489     # C_R H_ (1)
533   4   488 490     # C_R C_R (1)
534   4   490 491     # C_R C_R (-2)
535   4   490 497     # C_R C_R (-2)
536   4   491 502     # C_R C_R (-2)
537   3   491 504     # C_R H_ (1)
538   3   497 492     # C_R H_ (1)
539   1   493 494     # N_2 C_R (2)
540   3   494 495     # C_R H_ (1)
541   4   494 496     # C_R C_R (1)
542   4   496 497     # C_R C_R (-2)
543   4   496 503     # C_R C_R (-2)
544   3   503 498     # C_R H_ (1)
545   1   499 500     # N_2 C_R (2)
546   2   499 553     # N_2 N_2 (1)
547   3   500 501     # C_R H_ (1)
548   4   500 502     # C_R C_R (1)
549   4   502 503     # C_R C_R (-2)
550   1   505 506     # N_2 C_R (2)
551   3   506 507     # C_R H_ (1)
552   4   506 508     # C_R C_R (1)
553   4   508 509     # C_R C_R (-2)
554   4   508 515     # C_R C_R (-2)
555   4   509 520     # C_R C_R (-2)
556   3   509 522     # C_R H_ (1)
557   3   515 510     # C_R H_ (1)
558   1   511 512     # N_2 C_R (2)
559   2   511 529     # N_2 N_2 (1)
560   3   512 513     # C_R H_ (1)
561   4   512 514     # C_R C_R (1)
562   4   514 515     # C_R C_R (-2)
563   4   514 521     # C_R C_R (-2)
564   3   521 516     # C_R H_ (1)
565   1   517 518     # N_2 C_R (2)
566   3   518 519     # C_R H_ (1)
567   4   518 520     # C_R C_R (1)
568   4   520 521     # C_R C_R (-2)
569   1   523 524     # N_2 C_R (2)
570   2   523 541     # N_2 N_2 (1)
571   3   524 525     # C_R H_ (1)
572   4   524 526     # C_R C_R (1)
573   4   526 527     # C_R C_R (-2)
574   4   526 533     # C_R C_R (-2)
575   4   527 538     # C_R C_R (-2)
576   3   527 540     # C_R H_ (1)
577   3   533 528     # C_R H_ (1)
578   1   529 530     # N_2 C_R (2)
579   3   530 531     # C_R H_ (1)
580   4   530 532     # C_R C_R (1)
581   4   532 533     # C_R C_R (-2)
582   4   532 539     # C_R C_R (-2)
583   3   539 534     # C_R H_ (1)
584   1   535 536     # N_2 C_R (2)
585   3   536 537     # C_R H_ (1)
586   4   536 538     # C_R C_R (1)
587   4   538 539     # C_R C_R (-2)
588   1   541 542     # N_2 C_R (2)
589   3   542 543     # C_R H_ (1)
590   4   542 544     # C_R C_R (1)
591   4   544 545     # C_R C_R (-2)
592   4   544 551     # C_R C_R (-2)
593   4   545 556     # C_R C_R (-2)
594   3   545 558     # C_R H_ (1)
595   3   551 546     # C_R H_ (1)
596   1   547 548     # N_2 C_R (2)
597   2   547 565     # N_2 N_2 (1)
598   3   548 549     # C_R H_ (1)
599   4   548 550     # C_R C_R (1)
600   4   550 551     # C_R C_R (-2)
601   4   550 557     # C_R C_R (-2)
602   3   557 552     # C_R H_ (1)
603   1   553 554     # N_2 C_R (2)
604   3   554 555     # C_R H_ (1)
605   4   554 556     # C_R C_R (1)
606   4   556 557     # C_R C_R (-2)
607   1   559 560     # N_2 C_R (2)
608   3   560 561     # C_R H_ (1)
609   4   560 562     # C_R C_R (1)
610   4   562 563     # C_R C_R (-2)
611   4   562 569     # C_R C_R (-2)
612   4   563 574     # C_R C_R (-2)
613   3   563 576     # C_R H_ (1)
614   3   569 564     # C_R H_ (1)
615   1   565 566     # N_2 C_R (2)
616   3   566 567     # C_R H_ (1)
617   4   566 568     # C_R C_R (1)
618   4   568 569     # C_R C_R (-2)
619   4   568 575     # C_R C_R (-2)
620   3   575 570     # C_R H_ (1)
621   1   571 572     # N_2 C_R (2)
622   3   572 573     # C_R H_ (1)
623   4   572 574     # C_R C_R (1)
624   4   574 575     # C_R C_R (-2)
625   1   577 578     # N_2 C_R (2)
626   2   577 703     # N_2 N_2 (1)
627   3   578 579     # C_R H_ (1)
628   4   578 580     # C_R C_R (1)
629   4   580 581     # C_R C_R (-2)
630   4   580 587     # C_R C_R (-2)
631   4   581 592     # C_R C_R (-2)
632   3   581 594     # C_R H_ (1)
633   3   587 582     # C_R H_ (1)
634   1   583 584     # N_2 C_R (2)
635   2   583 601     # N_2 N_2 (1)
636   3   584 585     # C_R H_ (1)
637   4   584 586     # C_R C_R (1)
638   4   586 587     # C_R C_R (-2)
639   4   586 593     # C_R C_R (-2)
640   3   593 588     # C_R H_ (1)
641   1   589 590     # N_2 C_R (2)
642   2   589 679     # N_2 N_2 (1)
643   3   590 591     # C_R H_ (1)
644   4   590 592     # C_R C_R (1)
645   4   592 593     # C_R C_R (-2)
646   1   595 596     # N_2 C_R (2)
647   2   595 613     # N_2 N_2 (1)
648   3   596 597     # C_R H_ (1)
649   4   596 598     # C_R C_R (1)
650   4   598 599     # C_R C_R (-2)
651   4   598 605     # C_R C_R (-2)
652   4   599 610     # C_R C_R (-2)
653   3   599 612     # C_R H_ (1)
654   3   605 600     # C_R H_ (1)
655   1   601 602     # N_2 C_R (2)
656   3   602 603     # C_R H_ (1)
657   4   602 604     # C_R C_R (1)
658   4   604 605     # C_R C_R (-2)
659   4   604 611     # C_R C_R (-2)
660   3   611 606     # C_R H_ (1)
661   1   607 608     # N_2 C_R (2)
662   2   607 661     # N_2 N_2 (1)
663   3   608 609     # C_R H_ (1)
664   4   608 610     # C_R C_R (1)
665   4   610 611     # C_R C_R (-2)
666   1   613 614     # N_2 C_R (2)
667   3   614 615     # C_R H_ (1)
668   4   614 616     # C_R C_R (1)
669   4   616 617     # C_R C_R (-2)
670   4   616 623     # C_R C_R (-2)
671   4   617 628     # C_R C_R (-2)
672   3   617 630     # C_R H_ (1)
673   3   623 618     # C_R H_ (1)
674   1   619 620     # N_2 C_R (2)
675   2   619 637     # N_2 N_2 (1)
676   3   620 621     # C_R H_ (1)
677   4   620 622     # C_R C_R (1)
678   4   622 623     # C_R C_R (-2)
679   4   622 629     # C_R C_R (-2)
680   3   629 624     # C_R H_ (1)
681   1   625 626     # N_2 C_R (2)
682   2   625 715     # N_2 N_2 (1)
683   3   626 627     # C_R H_ (1)
684   4   626 628     # C_R C_R (1)
685   4   628 629     # C_R C_R (-2)
686   1   631 632     # N_2 C_R (2)
687   2   631 649     # N_2 N_2 (1)
688   3   632 633     # C_R H_ (1)
689   4   632 634     # C_R C_R (1)
690   4   634 635     # C_R C_R (-2)
691   4   634 641     # C_R C_R (-2)
692   4   635 646     # C_R C_R (-2)
693   3   635 648     # C_R H_ (1)
694   3   641 636     # C_R H_ (1)
695   1   637 638     # N_2 C_R (2)
696   3   638 639     # C_R H_ (1)
697   4   638 640     # C_R C_R (1)
698   4   640 641     # C_R C_R (-2)
699   4   640 647     # C_R C_R (-2)
700   3   647 642     # C_R H_ (1)
701   1   643 644     # N_2 C_R (2)
702   2   643 697     # N_2 N_2 (1)
703   3   644 645     # C_R H_ (1)
704   4   644 646     # C_R C_R (1)
705   4   646 647     # C_R C_R (-2)
706   1   649 650     # N_2 C_R (2)
707   3   650 651     # C_R H_ (1)
708   4   650 652     # C_R C_R (1)
709   4   652 653     # C_R C_R (-2)
710   4   652 659     # C_R C_R (-2)
711   4   653 664     # C_R C_R (-2)
712   3   653 666     # C_R H_ (1)
713   3   659 654     # C_R H_ (1)
714   1   655 656     # N_2 C_R (2)
715   2   655 673     # N_2 N_2 (1)
716   3   656 657     # C_R H_ (1)
717   4   656 658     # C_R C_R (1)
718   4   658 659     # C_R C_R (-2)
719   4   658 665     # C_R C_R (-2)
720   3   665 660     # C_R H_ (1)
721   1   661 662     # N_2 C_R (2)
722   3   662 663     # C_R H_ (1)
723   4   662 664     # C_R C_R (1)
724   4   664 665     # C_R C_R (-2)
725   1   667 668     # N_2 C_R (2)
726   2   667 685     # N_2 N_2 (1)
727   3   668 669     # C_R H_ (1)
728   4   668 670     # C_R C_R (1)
729   4   670 671     # C_R C_R (-2)
730   4   670 677     # C_R C_R (-2)
731   4   671 682     # C_R C_R (-2)
732   3   671 684     # C_R H_ (1)
733   3   677 672     # C_R H_ (1)
734   1   673 674     # N_2 C_R (2)
735   3   674 675     # C_R H_ (1)
736   4   674 676     # C_R C_R (1)
737   4   676 677     # C_R C_R (-2)
738   4   676 683     # C_R C_R (-2)
739   3   683 678     # C_R H_ (1)
740   1   679 680     # N_2 C_R (2)
741   3   680 681     # C_R H_ (1)
742   4   680 682     # C_R C_R (1)
743   4   682 683     # C_R C_R (-2)
744   1   685 686     # N_2 C_R (2)
745   3   686 687     # C_R H_ (1)
746   4   686 688     # C_R C_R (1)
747   4   688 689     # C_R C_R (-2)
748   4   688 695     # C_R C_R (-2)
749   4   689 700     # C_R C_R (-2)
750   3   689 702     # C_R H_ (1)
751   3   695 690     # C_R H_ (1)
752   1   691 692     # N_2 C_R (2)
753   2   691 709     # N_2 N_2 (1)
754   3   692 693     # C_R H_ (1)
755   4   692 694     # C_R C_R (1)
756   4   694 695     # C_R C_R (-2)
757   4   694 701     # C_R C_R (-2)
758   3   701 696     # C_R H_ (1)
759   1   697 698     # N_2 C_R (2)
760   3   698 699     # C_R H_ (1)
761   4   698 700     # C_R C_R (1)
762   4   700 701     # C_R C_R (-2)
763   1   703 704     # N_2 C_R (2)
764   3   704 705     # C_R H_ (1)
765   4   704 706     # C_R C_R (1)
766   4   706 707     # C_R C_R (-2)
767   4   706 713     # C_R C_R (-2)
768   4   707 718     # C_R C_R (-2)
769   3   707 720     # C_R H_ (1)
770   3   713 708     # C_R H_ (1)
771   1   709 710     # N_2 C_R (2)
772   3   710 711     # C_R H_ (1)
773   4   710 712     # C_R C_R (1)
774   4   712 713     # C_R C_R (-2)
775   4   712 719     # C_R C_R (-2)
776   3   719 714     # C_R H_ (1)
777   1   715 716     # N_2 C_R (2)
778   3   716 717     # C_R H_ (1)
779   4   716 718     # C_R C_R (1)
780   4   718 719     # C_R C_R (-2)
781	5	721	722
782	5	721	723
783	5	724	725
784	5	724	726
785	5	727	728
786	5	727	729
787	5	730	731
788	5	730	732
789	5	733	734
790	5	733	735
791	5	736	737
792	5	736	738
793	5	739	740
794	5	739	741
795	5	742	743
796	5	742	744
797	5	745	746
798	5	745	747
799	5	748	749
800	5	748	750
801	5	751	752
802	5	751	753
803	5	754	755
804	5	754	756
805	5	757	758
806	5	757	759
807	5	760	761
808	5	760	762
809	5	763	764
810	5	763	765
811	5	766	767
812	5	766	768
813	5	769	770
814	5	769	771
815	5	772	773
816	5	772	774
817	5	775	776
818	5	775	777
819	5	778	779
820	5	778	780
821	5	781	782
822	5	781	783
823	5	784	785
824	5	784	786
825	5	787	788
826	5	787	789
827	5	790	791
828	5	790	792
829	5	793	794
830	5	793	795
831	5	796	797
832	5	796	798
833	5	799	800
834	5	799	801
835	5	802	803
836	5	802	804
837	5	805	806
838	5	805	807
839	5	808	809
840	5	808	810
841	5	811	812
842	5	811	813
843	5	814	815
844	5	814	816
845	5	817	818
846	5	817	819
847	5	820	821
848	5	820	822
849	5	823	824
850	5	823	825
851	5	826	827
852	5	826	828
853	5	829	830
854	5	829	831
855	5	832	833
856	5	832	834
857	5	835	836
858	5	835	837
859	5	838	839
860	5	838	840
861	5	841	842
862	5	841	843
863	5	844	845
864	5	844	846
865	5	847	848
866	5	847	849
867	5	850	851
868	5	850	852
869	5	853	854
870	5	853	855
871	5	856	857
872	5	856	858
873	5	859	860
874	5	859	861
875	5	862	863
876	5	862	864
877	5	865	866
878	5	865	867
879	5	868	869
880	5	868	870
881	5	871	872
882	5	871	873
883	5	874	875
884	5	874	876
885	5	877	878
886	5	877	879
887	5	880	881
888	5	880	882
889	5	883	884
890	5	883	885
891	5	886	887
892	5	886	888
893	5	889	890
894	5	889	891
895	5	892	893
896	5	892	894
897	5	895	896
898	5	895	897
899	5	898	899
900	5	898	900
901	5	901	902
902	5	901	903
903	5	904	905
904	5	904	906
905	5	907	908
906	5	907	909
907	5	910	911
908	5	910	912
909	5	913	914
910	5	913	915
911	5	916	917
912	5	916	918
913	5	919	920
914	5	919	921
915	5	922	923
916	5	922	924
917	5	925	926
918	5	925	927
919	5	928	929
920	5	928	930
921	5	931	932
922	5	931	933
923	5	934	935
924	5	934	936
925	5	937	938
926	5	937	939
927	5	940	941
928	5	940	942
929	5	943	944
930	5	943	945
931	5	946	947
932	5	946	948
933	5	949	950
934	5	949	951
935	5	952	953
936	5	952	954
937	5	955	956
938	5	955	957
939	5	958	959
940	5	958	960
941	5	961	962
942	5	961	963
943	5	964	965
944	5	964	966
945	5	967	968
946	5	967	969
947	5	970	971
948	5	970	972
949	5	973	974
950	5	973	975
951	5	976	977
952	5	976	978
953	5	979	980
954	5	979	981
955	5	982	983
956	5	982	984
957	5	985	986
958	5	985	987
959	5	988	989
960	5	988	990
961	5	991	992
962	5	991	993
963	5	994	995
964	5	994	996
965	5	997	998
966	5	997	999
967	5	1000	1001
968	5	1000	1002
969	5	1003	1004
970	5	1003	1005
971	5	1006	1007
972	5	1006	1008
973	5	1009	1010
974	5	1009	1011
975	5	1012	1013
976	5	1012	1014
977	5	1015	1016
978	5	1015	1017
979	5	1018	1019
980	5	1018	1020
981	5	1021	1022
982	5	1021	1023
983	5	1024	1025
984	5	1024	1026
985	5	1027	1028
986	5	1027	1029
987	5	1030	1031
988	5	1030	1032
989	5	1033	1034
990	5	1033	1035
991	5	1036	1037
992	5	1036	1038
993	5	1039	1040
994	5	1039	1041
995	5	1042	1043
996	5	1042	1044
997	5	1045	1046
998	5	1045	1047
999	5	1048	1049
1000	5	1048	1050
1001	5	1051	1052
1002	5	1051	1053
1003	5	1054	1055
1004	5	1054	1056
1005	5	1057	1058
1006	5	1057	1059
1007	5	1060	1061
1008	5	1060	1062
1009	5	1063	1064
1010	5	1063	1065
1011	5	1066	1067
1012	5	1066	1068
1013	5	1069	1070
1014	5	1069	1071
1015	5	1072	1073
1016	5	1072	1074
1017	5	1075	1076
1018	5	1075	1077
1019	5	1078	1079
1020	5	1078	1080
1021	5	1081	1082
1022	5	1081	1083
1023	5	1084	1085
1024	5	1084	1086
1025	5	1087	1088
1026	5	1087	1089
1027	5	1090	1091
1028	5	1090	1092
1029	5	1093	1094
1030	5	1093	1095
1031	5	1096	1097
1032	5	1096	1098
1033	5	1099	1100
1034	5	1099	1101
1035	5	1102	1103
1036	5	1102	1104
1037	5	1105	1106
1038	5	1105	1107
1039	5	1108	1109
1040	5	1108	1110
1041	5	1111	1112
1042	5	1111	1113
1043	5	1114	1115
1044	5	1114	1116
1045	5	1117	1118
1046	5	1117	1119
1047	5	1120	1121
1048	5	1120	1122
1049	5	1123	1124
1050	5	1123	1125
1051	5	1126	1127
1052	5	1126	1128
1053	5	1129	1130
1054	5	1129	1131
1055	5	1132	1133
1056	5	1132	1134
1057	5	1135	1136
1058	5	1135	1137
1059	5	1138	1139
1060	5	1138	1140
1061	5	1141	1142
1062	5	1141	1143
1063	5	1144	1145
1064	5	1144	1146
1065	5	1147	1148
1066	5	1147	1149
1067	5	1150	1151
1068	5	1150	1152
1069	5	1153	1154
1070	5	1153	1155
1071	5	1156	1157
1072	5	1156	1158
1073	5	1159	1160
1074	5	1159	1161
1075	5	1162	1163
1076	5	1162	1164
1077	5	1165	1166
1078	5	1165	1167
1079	5	1168	1169
1080	5	1168	1170
1081	5	1171	1172
1082	5	1171	1173
1083	5	1174	1175
1084	5	1174	1176
1085	5	1177	1178
1086	5	1177	1179
1087	5	1180	1181
1088	5	1180	1182
1089	5	1183	1184
1090	5	1183	1185
1091	5	1186	1187
1092	5	1186	1188
1093	5	1189	1190
1094	5	1189	1191
1095	5	1192	1193
1096	5	1192	1194
1097	5	1195	1196
1098	5	1195	1197
1099	5	1198	1199
1100	5	1198	1200
1101	5	1201	1202
1102	5	1201	1203
1103	5	1204	1205
1104	5	1204	1206
1105	5	1207	1208
1106	5	1207	1209
1107	5	1210	1211
1108	5	1210	1212
1109	5	1213	1214
1110	5	1213	1215
1111	5	1216	1217
1112	5	1216	1218
1113	5	1219	1220
1114	5	1219	1221
1115	5	1222	1223
1116	5	1222	1224
1117	5	1225	1226
1118	5	1225	1227
1119	5	1228	1229
1120	5	1228	1230
1121	5	1231	1232
1122	5	1231	1233
1123	5	1234	1235
1124	5	1234	1236
1125	5	1237	1238
1126	5	1237	1239
1127	5	1240	1241
1128	5	1240	1242
1129	5	1243	1244
1130	5	1243	1245
1131	5	1246	1247
1132	5	1246	1248
1133	5	1249	1250
1134	5	1249	1251
1135	5	1252	1253
1136	5	1252	1254
1137	5	1255	1256
1138	5	1255	1257
1139	5	1258	1259
1140	5	1258	1260
1141	5	1261	1262
1142	5	1261	1263
1143	5	1264	1265
1144	5	1264	1266
1145	5	1267	1268
1146	5	1267	1269
1147	5	1270	1271
1148	5	1270	1272
1149	5	1273	1274
1150	5	1273	1275
1151	5	1276	1277
1152	5	1276	1278
1153	5	1279	1280
1154	5	1279	1281
1155	5	1282	1283
1156	5	1282	1284
1157	5	1285	1286
1158	5	1285	1287
1159	5	1288	1289
1160	5	1288	1290
1161	5	1291	1292
1162	5	1291	1293
1163	5	1294	1295
1164	5	1294	1296
1165	5	1297	1298
1166	5	1297	1299
1167	5	1300	1301
1168	5	1300	1302
1169	5	1303	1304
1170	5	1303	1305
1171	5	1306	1307
1172	5	1306	1308
1173	5	1309	1310
1174	5	1309	1311
1175	5	1312	1313
1176	5	1312	1314
1177	5	1315	1316
1178	5	1315	1317
1179	5	1318	1319
1180	5	1318	1320
1181	5	1321	1322
1182	5	1321	1323
1183	5	1324	1325
1184	5	1324	1326
1185	5	1327	1328
1186	5	1327	1329
1187	5	1330	1331
1188	5	1330	1332
1189	5	1333	1334
1190	5	1333	1335
1191	5	1336	1337
1192	5	1336	1338
1193	5	1339	1340
1194	5	1339	1341
1195	5	1342	1343
1196	5	1342	1344
1197	5	1345	1346
1198	5	1345	1347
1199	5	1348	1349
1200	5	1348	1350
1201	5	1351	1352
1202	5	1351	1353
1203	5	1354	1355
1204	5	1354	1356
1205	5	1357	1358
1206	5	1357	1359
1207	5	1360	1361
1208	5	1360	1362
1209	5	1363	1364
1210	5	1363	1365
1211	5	1366	1367
1212	5	1366	1368
1213	5	1369	1370
1214	5	1369	1371
1215	5	1372	1373
1216	5	1372	1374
1217	5	1375	1376
1218	5	1375	1377
1219	5	1378	1379
1220	5	1378	1380
1221	5	1381	1382
1222	5	1381	1383
1223	5	1384	1385
1224	5	1384	1386
1225	5	1387	1388
1226	5	1387	1389
1227	5	1390	1391
1228	5	1390	1392
1229	5	1393	1394
1230	5	1393	1395
1231	5	1396	1397
1232	5	1396	1398
1233	5	1399	1400
1234	5	1399	1401
1235	5	1402	1403
1236	5	1402	1404
1237	5	1405	1406
1238	5	1405	1407
1239	5	1408	1409
1240	5	1408	1410
1241	5	1411	1412
1242	5	1411	1413
1243	5	1414	1415
1244	5	1414	1416
1245	5	1417	1418
1246	5	1417	1419
1247	5	1420	1421
1248	5	1420	1422
1249	5	1423	1424
1250	5	1423	1425
1251	5	1426	1427
1252	5	1426	1428
1253	5	1429	1430
1254	5	1429	1431
1255	5	1432	1433
1256	5	1432	1434
1257	5	1435	1436
1258	5	1435	1437
1259	5	1438	1439
1260	5	1438	1440
1261	5	1441	1442
1262	5	1441	1443
1263	5	1444	1445
1264	5	1444	1446
1265	5	1447	1448
1266	5	1447	1449
1267	5	1450	1451
1268	5	1450	1452
1269	5	1453	1454
1270	5	1453	1455
1271	5	1456	1457
1272	5	1456	1458
1273	5	1459	1460
1274	5	1459	1461
1275	5	1462	1463
1276	5	1462	1464
1277	5	1465	1466
1278	5	1465	1467
1279	5	1468	1469
1280	5	1468	1470
1281	5	1471	1472
1282	5	1471	1473
1283	5	1474	1475
1284	5	1474	1476
1285	5	1477	1478
1286	5	1477	1479
1287	5	1480	1481
1288	5	1480	1482
1289	5	1483	1484
1290	5	1483	1485
1291	5	1486	1487
1292	5	1486	1488
1293	5	1489	1490
1294	5	1489	1491
1295	5	1492	1493
1296	5	1492	1494
1297	5	1495	1496
1298	5	1495	1497
1299	5	1498	1499
1300	5	1498	1500
1301	5	1501	1502
1302	5	1501	1503
1303	5	1504	1505
1304	5	1504	1506
1305	5	1507	1508
1306	5	1507	1509
1307	5	1510	1511
1308	5	1510	1512
1309	5	1513	1514
1310	5	1513	1515
1311	5	1516	1517
1312	5	1516	1518
1313	5	1519	1520
1314	5	1519	1521
1315	5	1522	1523
1316	5	1522	1524
1317	5	1525	1526
1318	5	1525	1527
1319	5	1528	1529
1320	5	1528	1530
1321	5	1531	1532
1322	5	1531	1533
1323	5	1534	1535
1324	5	1534	1536
1325	5	1537	1538
1326	5	1537	1539
1327	5	1540	1541
1328	5	1540	1542
1329	5	1543	1544
1330	5	1543	1545
1331	5	1546	1547
1332	5	1546	1548
1333	5	1549	1550
1334	5	1549	1551
1335	5	1552	1553
1336	5	1552	1554
1337	5	1555	1556
1338	5	1555	1557
1339	5	1558	1559
1340	5	1558	1560
1341	5	1561	1562
1342	5	1561	1563
1343	5	1564	1565
1344	5	1564	1566
1345	5	1567	1568
1346	5	1567	1569
1347	5	1570	1571
1348	5	1570	1572
1349	5	1573	1574
1350	5	1573	1575
1351	5	1576	1577
1352	5	1576	1578
1353	5	1579	1580
1354	5	1579	1581
1355	5	1582	1583
1356	5	1582	1584
1357	5	1585	1586
1358	5	1585	1587
1359	5	1588	1589
1360	5	1588	1590
1361	5	1591	1592
1362	5	1591	1593
1363	5	1594	1595
1364	5	1594	1596
1365	5	1597	1598
1366	5	1597	1599
1367	5	1600	1601
1368	5	1600	1602
1369	5	1603	1604
1370	5	1603	1605
1371	5	1606	1607
1372	5	1606	1608
1373	5	1609	1610
1374	5	1609	1611
1375	5	1612	1613
1376	5	1612	1614
1377	5	1615	1616
1378	5	1615	1617
1379	5	1618	1619
1380	5	1618	1620
1381	5	1621	1622
1382	5	1621	1623
1383	5	1624	1625
1384	5	1624	1626
1385	5	1627	1628
1386	5	1627	1629
1387	5	1630	1631
1388	5	1630	1632
1389	5	1633	1634
1390	5	1633	1635
1391	5	1636	1637
1392	5	1636	1638
1393	5	1639	1640
1394	5	1639	1641
1395	5	1642	1643
1396	5	1642	1644
1397	5	1645	1646
1398	5	1645	1647
1399	5	1648	1649
1400	5	1648	1650
1401	5	1651	1652
1402	5	1651	1653
1403	5	1654	1655
1404	5	1654	1656
1405	5	1657	1658
1406	5	1657	1659
1407	5	1660	1661
1408	5	1660	1662
1409	5	1663	1664
1410	5	1663	1665
1411	5	1666	1667
1412	5	1666	1668
1413	5	1669	1670
1414	5	1669	1671
1415	5	1672	1673
1416	5	1672	1674
1417	5	1675	1676
1418	5	1675	1677
1419	5	1678	1679
1420	5	1678	1680
1421	5	1681	1682
1422	5	1681	1683
1423	5	1684	1685
1424	5	1684	1686
1425	5	1687	1688
1426	5	1687	1689
1427	5	1690	1691
1428	5	1690	1692
1429	5	1693	1694
1430	5	1693	1695
1431	5	1696	1697
1432	5	1696	1698
1433	5	1699	1700
1434	5	1699	1701
1435	5	1702	1703
1436	5	1702	1704
1437	5	1705	1706
1438	5	1705	1707
1439	5	1708	1709
1440	5	1708	1710
1441	5	1711	1712
1442	5	1711	1713
1443	5	1714	1715
1444	5	1714	1716
1445	5	1717	1718
1446	5	1717	1719
1447	5	1720	1721
1448	5	1720	1722
1449	5	1723	1724
1450	5	1723	1725
1451	5	1726	1727
1452	5	1726	1728
1453	5	1729	1730
1454	5	1729	1731
1455	5	1732	1733
1456	5	1732	1734
1457	5	1735	1736
1458	5	1735	1737
1459	5	1738	1739
1460	5	1738	1740
1461	5	1741	1742
1462	5	1741	1743
1463	5	1744	1745
1464	5	1744	1746
1465	5	1747	1748
1466	5	1747	1749
1467	5	1750	1751
1468	5	1750	1752
1469	5	1753	1754
1470	5	1753	1755
1471	5	1756	1757
1472	5	1756	1758
1473	5	1759	1760
1474	5	1759	1761
1475	5	1762	1763
1476	5	1762	1764
1477	5	1765	1766
1478	5	1765	1767
1479	5	1768	1769
1480	5	1768	1770
1481	5	1771	1772
1482	5	1771	1773
1483	5	1774	1775
1484	5	1774	1776
1485	5	1777	1778
1486	5	1777	1779
1487	5	1780	1781
1488	5	1780	1782
1489	5	1783	1784
1490	5	1783	1785
1491	5	1786	1787
1492	5	1786	1788
1493	5	1789	1790
1494	5	1789	1791
1495	5	1792	1793
1496	5	1792	1794
1497	5	1795	1796
1498	5	1795	1797
1499	5	1798	1799
1500	5	1798	1800
1501	5	1801	1802
1502	5	1801	1803
1503	5	1804	1805
1504	5	1804	1806
1505	5	1807	1808
1506	5	1807	1809
1507	5	1810	1811
1508	5	1810	1812
1509	5	1813	1814
1510	5	1813	1815
1511	5	1816	1817
1512	5	1816	1818
1513	5	1819	1820
1514	5	1819	1821
1515	5	1822	1823
1516	5	1822	1824
1517	5	1825	1826
1518	5	1825	1827
1519	5	1828	1829
1520	5	1828	1830
1521	5	1831	1832
1522	5	1831	1833
1523	5	1834	1835
1524	5	1834	1836
1525	5	1837	1838
1526	5	1837	1839
1527	5	1840	1841
1528	5	1840	1842
1529	5	1843	1844
1530	5	1843	1845
1531	5	1846	1847
1532	5	1846	1848
1533	5	1849	1850
1534	5	1849	1851
1535	5	1852	1853
1536	5	1852	1854
1537	5	1855	1856
1538	5	1855	1857
1539	5	1858	1859
1540	5	1858	1860
1541	5	1861	1862
1542	5	1861	1863
1543	5	1864	1865
1544	5	1864	1866
1545	5	1867	1868
1546	5	1867	1869
1547	5	1870	1871
1548	5	1870	1872
1549	5	1873	1874
1550	5	1873	1875
1551	5	1876	1877
1552	5	1876	1878
1553	5	1879	1880
1554	5	1879	1881
1555	5	1882	1883
1556	5	1882	1884
1557	5	1885	1886
1558	5	1885	1887
1559	5	1888	1889
1560	5	1888	1890
1561	5	1891	1892
1562	5	1891	1893
1563	5	1894	1895
1564	5	1894	1896
1565	5	1897	1898
1566	5	1897	1899
1567	5	1900	1901
1568	5	1900	1902
1569	5	1903	1904
1570	5	1903	1905
1571	5	1906	1907
1572	5	1906	1908
1573	5	1909	1910
1574	5	1909	1911
1575	5	1912	1913
1576	5	1912	1914
1577	5	1915	1916
1578	5	1915	1917
1579	5	1918	1919
1580	5	1918	1920
1581	5	1921	1922
1582	5	1921	1923
1583	5	1924	1925
1584	5	1924	1926
1585	5	1927	1928
1586	5	1927	1929
1587	5	1930	1931
1588	5	1930	1932
1589	5	1933	1934
1590	5	1933	1935
1591	5	1936	1937
1592	5	1936	1938
1593	5	1939	1940
1594	5	1939	1941
1595	5	1942	1943
1596	5	1942	1944
1597	5	1945	1946
1598	5	1945	1947
1599	5	1948	1949
1600	5	1948	1950
1601	5	1951	1952
1602	5	1951	1953
1603	5	1954	1955
1604	5	1954	1956
1605	5	1957	1958
1606	5	1957	1959
1607	5	1960	1961
1608	5	1960	1962
1609	5	1963	1964
1610	5	1963	1965
1611	5	1966	1967
1612	5	1966	1968
1613	5	1969	1970
1614	5	1969	1971
1615	5	1972	1973
1616	5	1972	1974
1617	5	1975	1976
1618	5	1975	1977
1619	5	1978	1979
1620	5	1978	1980
1621	5	1981	1982
1622	5	1981	1983
1623	5	1984	1985
1624	5	1984	1986
1625	5	1987	1988
1626	5	1987	1989
1627	5	1990	1991
1628	5	1990	1992
1629	5	1993	1994
1630	5	1993	1995
1631	5	1996	1997
1632	5	1996	1998
1633	5	1999	2000
1634	5	1999	2001
1635	5	2002	2003
1636	5	2002	2004
1637	5	2005	2006
1638	5	2005	2007
1639	5	2008	2009
1640	5	2008	2010
1641	5	2011	2012
1642	5	2011	2013
1643	5	2014	2015
1644	5	2014	2016
1645	5	2017	2018
1646	5	2017	2019
1647	5	2020	2021
1648	5	2020	2022
1649	5	2023	2024
1650	5	2023	2025
1651	5	2026	2027
1652	5	2026	2028
1653	5	2029	2030
1654	5	2029	2031
1655	5	2032	2033
1656	5	2032	2034
1657	5	2035	2036
1658	5	2035	2037
1659	5	2038	2039
1660	5	2038	2040
1661	5	2041	2042
1662	5	2041	2043
1663	5	2044	2045
1664	5	2044	2046
1665	5	2047	2048
1666	5	2047	2049
1667	5	2050	2051
1668	5	2050	2052
1669	5	2053	2054
1670	5	2053	2055
1671	5	2056	2057
1672	5	2056	2058
1673	5	2059	2060
1674	5	2059	2061
1675	5	2062	2063
1676	5	2062	2064
1677	5	2065	2066
1678	5	2065	2067
1679	5	2068	2069
1680	5	2068	2070
1681	5	2071	2072
1682	5	2071	2073
1683	5	2074	2075
1684	5	2074	2076
1685	5	2077	2078
1686	5	2077	2079
1687	5	2080	2081
1688	5	2080	2082
1689	5	2083	2084
1690	5	2083	2085
1691	5	2086	2087
1692	5	2086	2088
1693	5	2089	2090
1694	5	2089	2091
1695	5	2092	2093
1696	5	2092	2094
1697	5	2095	2096
1698	5	2095	2097
1699	5	2098	2099
1700	5	2098	2100
1701	5	2101	2102
1702	5	2101	2103
1703	5	2104	2105
1704	5	2104	2106
1705	5	2107	2108
1706	5	2107	2109
1707	5	2110	2111
1708	5	2110	2112
1709	5	2113	2114
1710	5	2113	2115
1711	5	2116	2117
1712	5	2116	2118
1713	5	2119	2120
1714	5	2119	2121
1715	5	2122	2123
1716	5	2122	2124
1717	5	2125	2126
1718	5	2125	2127
1719	5	2128	2129
1720	5	2128	2130
1721	5	2131	2132
1722	5	2131	2133
1723	5	2134	2135
1724	5	2134	2136
1725	5	2137	2138
1726	5	2137	2139
1727	5	2140	2141
1728	5	2140	2142
1729	5	2143	2144
1730	5	2143	2145
1731	5	2146	2147
1732	5	2146	2148
1733	5	2149	2150
1734	5	2149	2151
1735	5	2152	2153
1736	5	2152	2154
1737	5	2155	2156
1738	5	2155	2157
1739	5	2158	2159
1740	5	2158	2160
1741	5	2161	2162
1742	5	2161	2163
1743	5	2164	2165
1744	5	2164	2166
1745	5	2167	2168
1746	5	2167	2169
1747	5	2170	2171
1748	5	2170	2172
1749	5	2173	2174
1750	5	2173	2175
1751	5	2176	2177
1752	5	2176	2178
1753	5	2179	2180
1754	5	2179	2181
1755	5	2182	2183
1756	5	2182	2184
1757	5	2185	2186
1758	5	2185	2187
1759	5	2188	2189
1760	5	2188	2190
1761	5	2191	2192
1762	5	2191	2193
1763	5	2194	2195
1764	5	2194	2196
1765	5	2197	2198
1766	5	2197	2199
1767	5	2200	2201
1768	5	2200	2202
1769	5	2203	2204
1770	5	2203	2205
1771	5	2206	2207
1772	5	2206	2208
1773	5	2209	2210
1774	5	2209	2211
1775	5	2212	2213
1776	5	2212	2214
1777	5	2215	2216
1778	5	2215	2217
1779	5	2218	2219
1780	5	2218	2220
1781	5	2221	2222
1782	5	2221	2223
1783	5	2224	2225
1784	5	2224	2226
1785	5	2227	2228
1786	5	2227	2229
1787	5	2230	2231
1788	5	2230	2232
1789	5	2233	2234
1790	5	2233	2235
1791	5	2236	2237
1792	5	2236	2238
1793	5	2239	2240
1794	5	2239	2241
1795	5	2242	2243
1796	5	2242	2244
1797	5	2245	2246
1798	5	2245	2247
1799	5	2248	2249
1800	5	2248	2250
1801	5	2251	2252
1802	5	2251	2253
1803	5	2254	2255
1804	5	2254	2256
1805	5	2257	2258
1806	5	2257	2259
1807	5	2260	2261
1808	5	2260	2262
1809	5	2263	2264
1810	5	2263	2265
1811	5	2266	2267
1812	5	2266	2268
1813	5	2269	2270
1814	5	2269	2271
1815	5	2272	2273
1816	5	2272	2274
1817	5	2275	2276
1818	5	2275	2277
1819	5	2278	2279
1820	5	2278	2280
1821	5	2281	2282
1822	5	2281	2283
1823	5	2284	2285
1824	5	2284	2286
1825	5	2287	2288
1826	5	2287	2289
1827	5	2290	2291
1828	5	2290	2292
1829	5	2293	2294
1830	5	2293	2295
1831	5	2296	2297
1832	5	2296	2298
1833	5	2299	2300
1834	5	2299	2301
1835	5	2302	2303
1836	5	2302	2304
1837	5	2305	2306
1838	5	2305	2307
1839	5	2308	2309
1840	5	2308	2310
1841	5	2311	2312
1842	5	2311	2313
1843	5	2314	2315
1844	5	2314	2316
1845	5	2317	2318
1846	5	2317	2319
1847	5	2320	2321
1848	5	2320	2322
1849	5	2323	2324
1850	5	2323	2325
1851	5	2326	2327
1852	5	2326	2328
1853	5	2329	2330
1854	5	2329	2331
1855	5	2332	2333
1856	5	2332	2334
1857	5	2335	2336
1858	5	2335	2337
1859	5	2338	2339
1860	5	2338	2340
1861	5	2341	2342
1862	5	2341	2343
1863	5	2344	2345
1864	5	2344	2346
1865	5	2347	2348
1866	5	2347	2349
1867	5	2350	2351
1868	5	2350	2352
1869	5	2353	2354
1870	5	2353	2355
1871	5	2356	2357
1872	5	2356	2358
1873	5	2359	2360
1874	5	2359	2361
1875	5	2362	2363
1876	5	2362	2364
1877	5	2365	2366
1878	5	2365	2367
1879	5	2368	2369
1880	5	2368	2370
1881	5	2371	2372
1882	5	2371	2373
1883	5	2374	2375
1884	5	2374	2376
1885	5	2377	2378
1886	5	2377	2379
1887	5	2380	2381
1888	5	2380	2382
1889	5	2383	2384
1890	5	2383	2385
1891	5	2386	2387
1892	5	2386	2388
1893	5	2389	2390
1894	5	2389	2391
1895	5	2392	2393
1896	5	2392	2394
1897	5	2395	2396
1898	5	2395	2397
1899	5	2398	2399
1900	5	2398	2400
1901	5	2401	2402
1902	5	2401	2403
1903	5	2404	2405
1904	5	2404	2406
1905	5	2407	2408
1906	5	2407	2409
1907	5	2410	2411
1908	5	2410	2412
1909	5	2413	2414
1910	5	2413	2415
1911	5	2416	2417
1912	5	2416	2418
1913	5	2419	2420
1914	5	2419	2421
1915	5	2422	2423
1916	5	2422	2424
1917	5	2425	2426
1918	5	2425	2427
1919	5	2428	2429
1920	5	2428	2430
1921	5	2431	2432
1922	5	2431	2433
1923	5	2434	2435
1924	5	2434	2436
1925	5	2437	2438
1926	5	2437	2439
1927	5	2440	2441
1928	5	2440	2442
1929	5	2443	2444
1930	5	2443	2445
1931	5	2446	2447
1932	5	2446	2448
1933	5	2449	2450
1934	5	2449	2451
1935	5	2452	2453
1936	5	2452	2454
1937	5	2455	2456
1938	5	2455	2457
1939	5	2458	2459
1940	5	2458	2460
1941	5	2461	2462
1942	5	2461	2463
1943	5	2464	2465
1944	5	2464	2466
1945	5	2467	2468
1946	5	2467	2469
1947	5	2470	2471
1948	5	2470	2472
1949	5	2473	2474
1950	5	2473	2475
1951	5	2476	2477
1952	5	2476	2478
1953	5	2479	2480
1954	5	2479	2481
1955	5	2482	2483
1956	5	2482	2484
1957	5	2485	2486
1958	5	2485	2487
1959	5	2488	2489
1960	5	2488	2490
1961	5	2491	2492
1962	5	2491	2493
1963	5	2494	2495
1964	5	2494	2496
1965	5	2497	2498
1966	5	2497	2499
1967	5	2500	2501
1968	5	2500	2502
1969	5	2503	2504
1970	5	2503	2505
1971	5	2506	2507
1972	5	2506	2508
1973	5	2509	2510
1974	5	2509	2511
1975	5	2512	2513
1976	5	2512	2514
1977	5	2515	2516
1978	5	2515	2517
1979	5	2518	2519
1980	5	2518	2520
1981	5	2521	2522
1982	5	2521	2523
1983	5	2524	2525
1984	5	2524	2526
1985	5	2527	2528
1986	5	2527	2529
1987	5	2530	2531
1988	5	2530	2532
1989	5	2533	2534
1990	5	2533	2535
1991	5	2536	2537
1992	5	2536	2538
1993	5	2539	2540
1994	5	2539	2541
1995	5	2542	2543
1996	5	2542	2544
1997	5	2545	2546
1998	5	2545	2547
1999	5	2548	2549
2000	5	2548	2550
2001	5	2551	2552
2002	5	2551	2553
2003	5	2554	2555
2004	5	2554	2556
2005	5	2557	2558
2006	5	2557	2559
2007	5	2560	2561
2008	5	2560	2562
2009	5	2563	2564
2010	5	2563	2565
2011	5	2566	2567
2012	5	2566	2568
2013	5	2569	2570
2014	5	2569	2571
2015	5	2572	2573
2016	5	2572	2574
2017	5	2575	2576
2018	5	2575	2577
2019	5	2578	2579
2020	5	2578	2580
2021	5	2581	2582
2022	5	2581	2583
2023	5	2584	2585
2024	5	2584	2586
2025	5	2587	2588
2026	5	2587	2589
2027	5	2590	2591
2028	5	2590	2592
2029	5	2593	2594
2030	5	2593	2595
2031	5	2596	2597
2032	5	2596	2598
2033	5	2599	2600
2034	5	2599	2601
2035	5	2602	2603
2036	5	2602	2604
2037	5	2605	2606
2038	5	2605	2607
2039	5	2608	2609
2040	5	2608	2610
2041	5	2611	2612
2042	5	2611	2613
2043	5	2614	2615
2044	5	2614	2616
2045	5	2617	2618
2046	5	2617	2619
2047	5	2620	2621
2048	5	2620	2622
2049	5	2623	2624
2050	5	2623	2625
2051	5	2626	2627
2052	5	2626	2628
2053	5	2629	2630
2054	5	2629	2631
2055	5	2632	2633
2056	5	2632	2634
2057	5	2635	2636
2058	5	2635	2637
2059	5	2638	2639
2060	5	2638	2640
2061	5	2641	2642
2062	5	2641	2643
2063	5	2644	2645
2064	5	2644	2646
2065	5	2647	2648
2066	5	2647	2649
2067	5	2650	2651
2068	5	2650	2652
2069	5	2653	2654
2070	5	2653	2655
2071	5	2656	2657
2072	5	2656	2658
2073	5	2659	2660
2074	5	2659	2661
2075	5	2662	2663
2076	5	2662	2664
2077	5	2665	2666
2078	5	2665	2667
2079	5	2668	2669
2080	5	2668	2670
2081	5	2671	2672
2082	5	2671	2673
2083	5	2674	2675
2084	5	2674	2676
2085	5	2677	2678
2086	5	2677	2679
2087	5	2680	2681
2088	5	2680	2682
2089	5	2683	2684
2090	5	2683	2685
2091	5	2686	2687
2092	5	2686	2688
2093	5	2689	2690
2094	5	2689	2691
2095	5	2692	2693
2096	5	2692	2694
2097	5	2695	2696
2098	5	2695	2697
2099	5	2698	2699
2100	5	2698	2700
2101	5	2701	2702
2102	5	2701	2703
2103	5	2704	2705
2104	5	2704	2706
2105	5	2707	2708
2106	5	2707	2709
2107	5	2710	2711
2108	5	2710	2712
2109	5	2713	2714
2110	5	2713	2715
2111	5	2716	2717
2112	5	2716	2718
2113	5	2719	2720
2114	5	2719	2721
2115	5	2722	2723
2116	5	2722	2724
2117	5	2725	2726
2118	5	2725	2727
2119	5	2728	2729
2120	5	2728	2730
2121	5	2731	2732
2122	5	2731	2733
2123	5	2734	2735
2124	5	2734	2736
2125	5	2737	2738
2126	5	2737	2739
2127	5	2740	2741
2128	5	2740	2742
2129	5	2743	2744
2130	5	2743	2745
2131	5	2746	2747
2132	5	2746	2748
2133	5	2749	2750
2134	5	2749	2751
2135	5	2752	2753
2136	5	2752	2754
2137	5	2755	2756
2138	5	2755	2757
2139	5	2758	2759
2140	5	2758	2760
2141	5	2761	2762
2142	5	2761	2763
2143	5	2764	2765
2144	5	2764	2766
2145	5	2767	2768
2146	5	2767	2769
2147	5	2770	2771
2148	5	2770	2772
2149	5	2773	2774
2150	5	2773	2775
2151	5	2776	2777
2152	5	2776	2778
2153	5	2779	2780
2154	5	2779	2781
2155	5	2782	2783
2156	5	2782	2784
2157	5	2785	2786
2158	5	2785	2787
2159	5	2788	2789
2160	5	2788	2790
2161	5	2791	2792
2162	5	2791	2793
2163	5	2794	2795
2164	5	2794	2796
2165	5	2797	2798
2166	5	2797	2799
2167	5	2800	2801
2168	5	2800	2802
2169	5	2803	2804
2170	5	2803	2805
2171	5	2806	2807
2172	5	2806	2808
2173	5	2809	2810
2174	5	2809	2811
2175	5	2812	2813
2176	5	2812	2814
2177	5	2815	2816
2178	5	2815	2817
2179	5	2818	2819
2180	5	2818	2820
2181	5	2821	2822
2182	5	2821	2823
2183	5	2824	2825
2184	5	2824	2826
2185	5	2827	2828
2186	5	2827	2829
2187	5	2830	2831
2188	5	2830	2832
2189	5	2833	2834
2190	5	2833	2835
2191	5	2836	2837
2192	5	2836	2838
2193	5	2839	2840
2194	5	2839	2841
2195	5	2842	2843
2196	5	2842	2844
2197	5	2845	2846
2198	5	2845	2847
2199	5	2848	2849
2200	5	2848	2850
2201	5	2851	2852
2202	5	2851	2853
2203	5	2854	2855
2204	5	2854	2856
2205	5	2857	2858
2206	5	2857	2859
2207	5	2860	2861
2208	5	2860	2862
2209	5	2863	2864
2210	5	2863	2865
2211	5	2866	2867
2212	5	2866	2868
2213	5	2869	2870
2214	5	2869	2871
2215	5	2872	2873
2216	5	2872	2874
2217	5	2875	2876
2218	5	2875	2877
2219	5	2878	2879
2220	5	2878	2880
2221	5	2881	2882
2222	5	2881	2883
2223	5	2884	2885
2224	5	2884	2886
2225	5	2887	2888
2226	5	2887	2889
2227	5	2890	2891
2228	5	2890	2892
2229	5	2893	2894
2230	5	2893	2895
2231	5	2896	2897
2232	5	2896	2898
2233	5	2899	2900
2234	5	2899	2901
2235	5	2902	2903
2236	5	2902	2904
2237	5	2905	2906
2238	5	2905	2907
2239	5	2908	2909
2240	5	2908	2910
2241	5	2911	2912
2242	5	2911	2913
2243	5	2914	2915
2244	5	2914	2916
2245	5	2917	2918
2246	5	2917	2919
2247	5	2920	2921
2248	5	2920	2922
2249	5	2923	2924
2250	5	2923	2925
2251	5	2926	2927
2252	5	2926	2928
2253	5	2929	2930
2254	5	2929	2931
2255	5	2932	2933
2256	5	2932	2934
2257	5	2935	2936
2258	5	2935	2937
2259	5	2938	2939
2260	5	2938	2940
2261	5	2941	2942
2262	5	2941	2943
2263	5	2944	2945
2264	5	2944	2946
2265	5	2947	2948
2266	5	2947	2949
2267	5	2950	2951
2268	5	2950	2952
2269	5	2953	2954
2270	5	2953	2955
2271	5	2956	2957
2272	5	2956	2958
2273	5	2959	2960
2274	5	2959	2961
2275	5	2962	2963
2276	5	2962	2964
2277	5	2965	2966
2278	5	2965	2967
2279	5	2968	2969
2280	5	2968	2970
2281	5	2971	2972
2282	5	2971	2973
2283	5	2974	2975
2284	5	2974	2976
2285	5	2977	2978
2286	5	2977	2979
2287	5	2980	2981
2288	5	2980	2982
2289	5	2983	2984
2290	5	2983	2985
2291	5	2986	2987
2292	5	2986	2988
2293	5	2989	2990
2294	5	2989	2991
2295	5	2992	2993
2296	5	2992	2994
2297	5	2995	2996
2298	5	2995	2997
2299	5	2998	2999
2300	5	2998	3000
2301	5	3001	3002
2302	5	3001	3003
2303	5	3004	3005
2304	5	3004	3006
2305	5	3007	3008
2306	5	3007	3009
2307	5	3010	3011
2308	5	3010	3012
2309	5	3013	3014
2310	5	3013	3015
2311	5	3016	3017
2312	5	3016	3018
2313	5	3019	3020
2314	5	3019	3021
2315	5	3022	3023
2316	5	3022	3024
2317	5	3025	3026
2318	5	3025	3027
2319	5	3028	3029
2320	5	3028	3030
2321	5	3031	3032
2322	5	3031	3033
2323	5	3034	3035
2324	5	3034	3036
2325	5	3037	3038
2326	5	3037	3039
2327	5	3040	3041
2328	5	3040	3042
2329	5	3043	3044
2330	5	3043	3045
2331	5	3046	3047
2332	5	3046	3048
2333	5	3049	3050
2334	5	3049	3051
2335	5	3052	3053
2336	5	3052	3054
2337	5	3055	3056
2338	5	3055	3057
2339	5	3058	3059
2340	5	3058	3060
2341	5	3061	3062
2342	5	3061	3063
2343	5	3064	3065
2344	5	3064	3066
2345	5	3067	3068
2346	5	3067	3069
2347	5	3070	3071
2348	5	3070	3072
2349	5	3073	3074
2350	5	3073	3075
2351	5	3076	3077
2352	5	3076	3078
2353	5	3079	3080
2354	5	3079	3081
2355	5	3082	3083
2356	5	3082	3084
2357	5	3085	3086
2358	5	3085	3087
2359	5	3088	3089
2360	5	3088	3090
2361	5	3091	3092
2362	5	3091	3093
2363	5	3094	3095
2364	5	3094	3096
2365	5	3097	3098
2366	5	3097	3099
2367	5	3100	3101
2368	5	3100	3102
2369	5	3103	3104
2370	5	3103	3105
2371	5	3106	3107
2372	5	3106	3108
2373	5	3109	3110
2374	5	3109	3111
2375	5	3112	3113
2376	5	3112	3114
2377	5	3115	3116
2378	5	3115	3117
2379	5	3118	3119
2380	5	3118	3120
2381	5	3121	3122
2382	5	3121	3123
2383	5	3124	3125
2384	5	3124	3126
2385	5	3127	3128
2386	5	3127	3129
2387	5	3130	3131
2388	5	3130	3132
2389	5	3133	3134
2390	5	3133	3135
2391	5	3136	3137
2392	5	3136	3138
2393	5	3139	3140
2394	5	3139	3141
2395	5	3142	3143
2396	5	3142	3144
2397	5	3145	3146
2398	5	3145	3147
2399	5	3148	3149
2400	5	3148	3150
2401	5	3151	3152
2402	5	3151	3153
2403	5	3154	3155
2404	5	3154	3156
2405	5	3157	3158
2406	5	3157	3159
2407	5	3160	3161
2408	5	3160	3162
2409	5	3163	3164
2410	5	3163	3165
2411	5	3166	3167
2412	5	3166	3168
2413	5	3169	3170
2414	5	3169	3171
2415	5	3172	3173
2416	5	3172	3174
2417	5	3175	3176
2418	5	3175	3177
2419	5	3178	3179
2420	5	3178	3180
2421	5	3181	3182
2422	5	3181	3183
2423	5	3184	3185
2424	5	3184	3186
2425	5	3187	3188
2426	5	3187	3189
2427	5	3190	3191
2428	5	3190	3192
2429	5	3193	3194
2430	5	3193	3195
2431	5	3196	3197
2432	5	3196	3198
2433	5	3199	3200
2434	5	3199	3201
2435	5	3202	3203
2436	5	3202	3204
2437	5	3205	3206
2438	5	3205	3207
2439	5	3208	3209
2440	5	3208	3210
2441	5	3211	3212
2442	5	3211	3213
2443	5	3214	3215
2444	5	3214	3216
2445	5	3217	3218
2446	5	3217	3219
2447	5	3220	3221
2448	5	3220	3222
2449	5	3223	3224
2450	5	3223	3225
2451	5	3226	3227
2452	5	3226	3228
2453	5	3229	3230
2454	5	3229	3231
2455	5	3232	3233
2456	5	3232	3234
2457	5	3235	3236
2458	5	3235	3237
2459	5	3238	3239
2460	5	3238	3240
2461	5	3241	3242
2462	5	3241	3243
2463	5	3244	3245
2464	5	3244	3246
2465	5	3247	3248
2466	5	3247	3249
2467	5	3250	3251
2468	5	3250	3252
2469	5	3253	3254
2470	5	3253	3255
2471	5	3256	3257
2472	5	3256	3258
2473	5	3259	3260
2474	5	3259	3261
2475	5	3262	3263
2476	5	3262	3264
2477	5	3265	3266
2478	5	3265	3267
2479	5	3268	3269
2480	5	3268	3270
2481	5	3271	3272
2482	5	3271	3273
2483	5	3274	3275
2484	5	3274	3276
2485	5	3277	3278
2486	5	3277	3279
2487	5	3280	3281
2488	5	3280	3282
2489	5	3283	3284
2490	5	3283	3285
2491	5	3286	3287
2492	5	3286	3288
2493	5	3289	3290
2494	5	3289	3291
2495	5	3292	3293
2496	5	3292	3294
2497	5	3295	3296
2498	5	3295	3297
2499	5	3298	3299
2500	5	3298	3300
2501	5	3301	3302
2502	5	3301	3303
2503	5	3304	3305
2504	5	3304	3306
2505	5	3307	3308
2506	5	3307	3309
2507	5	3310	3311
2508	5	3310	3312
2509	5	3313	3314
2510	5	3313	3315
2511	5	3316	3317
2512	5	3316	3318
2513	5	3319	3320
2514	5	3319	3321
2515	5	3322	3323
2516	5	3322	3324
2517	5	3325	3326
2518	5	3325	3327
2519	5	3328	3329
2520	5	3328	3330
2521	5	3331	3332
2522	5	3331	3333
2523	5	3334	3335
2524	5	3334	3336
2525	5	3337	3338
2526	5	3337	3339
2527	5	3340	3341
2528	5	3340	3342
2529	5	3343	3344
2530	5	3343	3345
2531	5	3346	3347
2532	5	3346	3348
2533	5	3349	3350
2534	5	3349	3351
2535	5	3352	3353
2536	5	3352	3354
2537	5	3355	3356
2538	5	3355	3357
2539	5	3358	3359
2540	5	3358	3360
2541	5	3361	3362
2542	5	3361	3363
2543	5	3364	3365
2544	5	3364	3366
2545	5	3367	3368
2546	5	3367	3369
2547	5	3370	3371
2548	5	3370	3372
2549	5	3373	3374
2550	5	3373	3375
2551	5	3376	3377
2552	5	3376	3378
2553	5	3379	3380
2554	5	3379	3381
2555	5	3382	3383
2556	5	3382	3384
2557	5	3385	3386
2558	5	3385	3387
2559	5	3388	3389
2560	5	3388	3390
2561	5	3391	3392
2562	5	3391	3393
2563	5	3394	3395
2564	5	3394	3396
2565	5	3397	3398
2566	5	3397	3399
2567	5	3400	3401
2568	5	3400	3402
2569	5	3403	3404
2570	5	3403	3405
2571	5	3406	3407
2572	5	3406	3408
2573	5	3409	3410
2574	5	3409	3411
2575	5	3412	3413
2576	5	3412	3414
2577	5	3415	3416
2578	5	3415	3417
2579	5	3418	3419
2580	5	3418	3420
2581	5	3421	3422
2582	5	3421	3423
2583	5	3424	3425
2584	5	3424	3426
2585	5	3427	3428
2586	5	3427	3429
2587	5	3430	3431
2588	5	3430	3432
2589	5	3433	3434
2590	5	3433	3435
2591	5	3436	3437
2592	5	3436	3438
2593	5	3439	3440
2594	5	3439	3441
2595	5	3442	3443
2596	5	3442	3444
2597	5	3445	3446
2598	5	3445	3447
2599	5	3448	3449
2600	5	3448	3450
2601	5	3451	3452
2602	5	3451	3453
2603	5	3454	3455
2604	5	3454	3456
2605	5	3457	3458
2606	5	3457	3459
2607	5	3460	3461
2608	5	3460	3462
2609	5	3463	3464
2610	5	3463	3465
2611	5	3466	3467
2612	5	3466	3468
2613	5	3469	3470
2614	5	3469	3471
2615	5	3472	3473
2616	5	3472	3474
2617	5	3475	3476
2618	5	3475	3477
2619	5	3478	3479
2620	5	3478	3480
2621	5	3481	3482
2622	5	3481	3483
2623	5	3484	3485
2624	5	3484	3486
2625	5	3487	3488
2626	5	3487	3489
2627	5	3490	3491
2628	5	3490	3492
2629	5	3493	3494
2630	5	3493	3495
2631	5	3496	3497
2632	5	3496	3498
2633	5	3499	3500
2634	5	3499	3501
2635	5	3502	3503
2636	5	3502	3504
2637	5	3505	3506
2638	5	3505	3507
2639	5	3508	3509
2640	5	3508	3510
2641	5	3511	3512
2642	5	3511	3513
2643	5	3514	3515
2644	5	3514	3516
2645	5	3517	3518
2646	5	3517	3519
2647	5	3520	3521
2648	5	3520	3522
2649	5	3523	3524
2650	5	3523	3525
2651	5	3526	3527
2652	5	3526	3528
2653	5	3529	3530
2654	5	3529	3531
2655	5	3532	3533
2656	5	3532	3534
2657	5	3535	3536
2658	5	3535	3537
2659	5	3538	3539
2660	5	3538	3540
2661	5	3541	3542
2662	5	3541	3543
2663	5	3544	3545
2664	5	3544	3546
2665	5	3547	3548
2666	5	3547	3549
2667	5	3550	3551
2668	5	3550	3552
2669	5	3553	3554
2670	5	3553	3555
2671	5	3556	3557
2672	5	3556	3558
2673	5	3559	3560
2674	5	3559	3561
2675	5	3562	3563
2676	5	3562	3564
2677	5	3565	3566
2678	5	3565	3567
2679	5	3568	3569
2680	5	3568	3570
2681	5	3571	3572
2682	5	3571	3573
2683	5	3574	3575
2684	5	3574	3576
2685	5	3577	3578
2686	5	3577	3579
2687	5	3580	3581
2688	5	3580	3582
2689	5	3583	3584
2690	5	3583	3585
2691	5	3586	3587
2692	5	3586	3588
2693	5	3589	3590
2694	5	3589	3591
2695	5	3592	3593
2696	5	3592	3594
2697	5	3595	3596
2698	5	3595	3597
2699	5	3598	3599
2700	5	3598	3600
2701	5	3601	3602
2702	5	3601	3603
2703	5	3604	3605
2704	5	3604	3606
2705	5	3607	3608
2706	5	3607	3609
2707	5	3610	3611
2708	5	3610	3612
2709	5	3613	3614
2710	5	3613	3615
2711	5	3616	3617
2712	5	3616	3618
2713	5	3619	3620
2714	5	3619	3621
2715	5	3622	3623
2716	5	3622	3624
2717	5	3625	3626
2718	5	3625	3627
2719	5	3628	3629
2720	5	3628	3630
2721	5	3631	3632
2722	5	3631	3633
2723	5	3634	3635
2724	5	3634	3636
2725	5	3637	3638
2726	5	3637	3639
2727	5	3640	3641
2728	5	3640	3642
2729	5	3643	3644
2730	5	3643	3645
2731	5	3646	3647
2732	5	3646	3648
2733	5	3649	3650
2734	5	3649	3651
2735	5	3652	3653
2736	5	3652	3654
2737	5	3655	3656
2738	5	3655	3657
2739	5	3658	3659
2740	5	3658	3660
2741	5	3661	3662
2742	5	3661	3663
2743	5	3664	3665
2744	5	3664	3666
2745	5	3667	3668
2746	5	3667	3669
2747	5	3670	3671
2748	5	3670	3672
2749	5	3673	3674
2750	5	3673	3675
2751	5	3676	3677
2752	5	3676	3678
2753	5	3679	3680
2754	5	3679	3681
2755	5	3682	3683
2756	5	3682	3684
2757	5	3685	3686
2758	5	3685	3687
2759	5	3688	3689
2760	5	3688	3690
2761	5	3691	3692
2762	5	3691	3693
2763	5	3694	3695
2764	5	3694	3696
2765	5	3697	3698
2766	5	3697	3699
2767	5	3700	3701
2768	5	3700	3702
2769	5	3703	3704
2770	5	3703	3705
2771	5	3706	3707
2772	5	3706	3708
2773	5	3709	3710
2774	5	3709	3711
2775	5	3712	3713
2776	5	3712	3714
2777	5	3715	3716
2778	5	3715	3717
2779	5	3718	3719
2780	5	3718	3720
2781	5	3721	3722
2782	5	3721	3723
2783	5	3724	3725
2784	5	3724	3726
2785	5	3727	3728
2786	5	3727	3729
2787	5	3730	3731
2788	5	3730	3732
2789	5	3733	3734
2790	5	3733	3735
2791	5	3736	3737
2792	5	3736	3738
2793	5	3739	3740
2794	5	3739	3741
2795	5	3742	3743
2796	5	3742	3744
2797	5	3745	3746
2798	5	3745	3747
2799	5	3748	3749
2800	5	3748	3750
2801	5	3751	3752
2802	5	3751	3753
2803	5	3754	3755
2804	5	3754	3756
2805	5	3757	3758
2806	5	3757	3759
2807	5	3760	3761
2808	5	3760	3762
2809	5	3763	3764
2810	5	3763	3765
2811	5	3766	3767
2812	5	3766	3768
2813	5	3769	3770
2814	5	3769	3771
2815	5	3772	3773
2816	5	3772	3774
2817	5	3775	3776
2818	5	3775	3777
2819	5	3778	3779
2820	5	3778	3780
2821	5	3781	3782
2822	5	3781	3783
2823	5	3784	3785
2824	5	3784	3786
2825	5	3787	3788
2826	5	3787	3789
2827	5	3790	3791
2828	5	3790	3792
2829	5	3793	3794
2830	5	3793	3795
2831	5	3796	3797
2832	5	3796	3798
2833	5	3799	3800
2834	5	3799	3801
2835	5	3802	3803
2836	5	3802	3804
2837	5	3805	3806
2838	5	3805	3807
2839	5	3808	3809
2840	5	3808	3810
2841	5	3811	3812
2842	5	3811	3813
2843	5	3814	3815
2844	5	3814	3816
2845	5	3817	3818
2846	5	3817	3819
2847	5	3820	3821
2848	5	3820	3822
2849	5	3823	3824
2850	5	3823	3825
2851	5	3826	3827
2852	5	3826	3828
2853	5	3829	3830
2854	5	3829	3831
2855	5	3832	3833
2856	5	3832	3834
2857	5	3835	3836
2858	5	3835	3837
2859	5	3838	3839
2860	5	3838	3840
2861	5	3841	3842
2862	5	3841	3843
2863	5	3844	3845
2864	5	3844	3846
2865	5	3847	3848
2866	5	3847	3849
2867	5	3850	3851
2868	5	3850	3852
2869	5	3853	3854
2870	5	3853	3855
2871	5	3856	3857
2872	5	3856	3858
2873	5	3859	3860
2874	5	3859	3861
2875	5	3862	3863
2876	5	3862	3864
2877	5	3865	3866
2878	5	3865	3867
2879	5	3868	3869
2880	5	3868	3870
2881	5	3871	3872
2882	5	3871	3873
2883	5	3874	3875
2884	5	3874	3876
2885	5	3877	3878
2886	5	3877	3879
2887	5	3880	3881
2888	5	3880	3882
2889	5	3883	3884
2890	5	3883	3885
2891	5	3886	3887
2892	5	3886	3888
2893	5	3889	3890
2894	5	3889	3891
2895	5	3892	3893
2896	5	3892	3894
2897	5	3895	3896
2898	5	3895	3897
2899	5	3898	3899
2900	5	3898	3900
2901	5	3901	3902
2902	5	3901	3903
2903	5	3904	3905
2904	5	3904	3906
2905	5	3907	3908
2906	5	3907	3909
2907	5	3910	3911
2908	5	3910	3912
2909	5	3913	3914
2910	5	3913	3915
2911	5	3916	3917
2912	5	3916	3918
2913	5	3919	3920
2914	5	3919	3921
2915	5	3922	3923
2916	5	3922	3924
2917	5	3925	3926
2918	5	3925	3927
2919	5	3928	3929
2920	5	3928	3930
2921	5	3931	3932
2922	5	3931	3933
2923	5	3934	3935
2924	5	3934	3936
2925	5	3937	3938
2926	5	3937	3939
2927	5	3940	3941
2928	5	3940	3942
2929	5	3943	3944
2930	5	3943	3945
2931	5	3946	3947
2932	5	3946	3948
2933	5	3949	3950
2934	5	3949	3951
2935	5	3952	3953
2936	5	3952	3954
2937	5	3955	3956
2938	5	3955	3957
2939	5	3958	3959
2940	5	3958	3960
2941	5	3961	3962
2942	5	3961	3963
2943	5	3964	3965
2944	5	3964	3966
2945	5	3967	3968
2946	5	3967	3969
2947	5	3970	3971
2948	5	3970	3972
2949	5	3973	3974
2950	5	3973	3975
2951	5	3976	3977
2952	5	3976	3978
2953	5	3979	3980
2954	5	3979	3981
2955	5	3982	3983
2956	5	3982	3984
2957	5	3985	3986
2958	5	3985	3987
2959	5	3988	3989
2960	5	3988	3990
2961	5	3991	3992
2962	5	3991	3993
2963	5	3994	3995
2964	5	3994	3996
2965	5	3997	3998
2966	5	3997	3999
2967	5	4000	4001
2968	5	4000	4002
2969	5	4003	4004
2970	5	4003	4005
2971	5	4006	4007
2972	5	4006	4008
2973	5	4009	4010
2974	5	4009	4011
2975	5	4012	4013
2976	5	4012	4014
2977	5	4015	4016
2978	5	4015	4017
2979	5	4018	4019
2980	5	4018	4020
2981	5	4021	4022
2982	5	4021	4023
2983	5	4024	4025
2984	5	4024	4026
2985	5	4027	4028
2986	5	4027	4029
2987	5	4030	4031
2988	5	4030	4032
2989	5	4033	4034
2990	5	4033	4035
2991	5	4036	4037
2992	5	4036	4038
2993	5	4039	4040
2994	5	4039	4041
2995	5	4042	4043
2996	5	4042	4044
2997	5	4045	4046
2998	5	4045	4047
2999	5	4048	4049
3000	5	4048	4050
3001	5	4051	4052
3002	5	4051	4053
3003	5	4054	4055
3004	5	4054	4056
3005	5	4057	4058
3006	5	4057	4059
3007	5	4060	4061
3008	5	4060	4062
3009	5	4063	4064
3010	5	4063	4065
3011	5	4066	4067
3012	5	4066	4068
3013	5	4069	4070
3014	5	4069	4071
3015	5	4072	4073
3016	5	4072	4074
3017	5	4075	4076
3018	5	4075	4077
3019	5	4078	4079
3020	5	4078	4080
3021	5	4081	4082
3022	5	4081	4083
3023	5	4084	4085
3024	5	4084	4086
3025	5	4087	4088
3026	5	4087	4089
3027	5	4090	4091
3028	5	4090	4092
3029	5	4093	4094
3030	5	4093	4095
3031	5	4096	4097
3032	5	4096	4098
3033	5	4099	4100
3034	5	4099	4101
3035	5	4102	4103
3036	5	4102	4104
3037	5	4105	4106
3038	5	4105	4107
3039	5	4108	4109
3040	5	4108	4110
3041	5	4111	4112
3042	5	4111	4113
3043	5	4114	4115
3044	5	4114	4116
3045	5	4117	4118
3046	5	4117	4119
3047	5	4120	4121
3048	5	4120	4122
3049	5	4123	4124
3050	5	4123	4125
3051	5	4126	4127
3052	5	4126	4128
3053	5	4129	4130
3054	5	4129	4131
3055	5	4132	4133
3056	5	4132	4134
3057	5	4135	4136
3058	5	4135	4137
3059	5	4138	4139
3060	5	4138	4140
3061	5	4141	4142
3062	5	4141	4143
3063	5	4144	4145
3064	5	4144	4146
3065	5	4147	4148
3066	5	4147	4149
3067	5	4150	4151
3068	5	4150	4152
3069	5	4153	4154
3070	5	4153	4155
3071	5	4156	4157
3072	5	4156	4158
3073	5	4159	4160
3074	5	4159	4161
3075	5	4162	4163
3076	5	4162	4164
3077	5	4165	4166
3078	5	4165	4167
3079	5	4168	4169
3080	5	4168	4170
3081	5	4171	4172
3082	5	4171	4173
3083	5	4174	4175
3084	5	4174	4176
3085	5	4177	4178
3086	5	4177	4179
3087	5	4180	4181
3088	5	4180	4182
3089	5	4183	4184
3090	5	4183	4185
3091	5	4186	4187
3092	5	4186	4188
3093	5	4189	4190
3094	5	4189	4191
3095	5	4192	4193
3096	5	4192	4194
3097	5	4195	4196
3098	5	4195	4197
3099	5	4198	4199
3100	5	4198	4200
3101	5	4201	4202
3102	5	4201	4203
3103	5	4204	4205
3104	5	4204	4206
3105	5	4207	4208
3106	5	4207	4209
3107	5	4210	4211
3108	5	4210	4212
3109	5	4213	4214
3110	5	4213	4215
3111	5	4216	4217
3112	5	4216	4218
3113	5	4219	4220
3114	5	4219	4221
3115	5	4222	4223
3116	5	4222	4224
3117	5	4225	4226
3118	5	4225	4227
3119	5	4228	4229
3120	5	4228	4230
3121	5	4231	4232
3122	5	4231	4233
3123	5	4234	4235
3124	5	4234	4236
3125	5	4237	4238
3126	5	4237	4239
3127	5	4240	4241
3128	5	4240	4242
3129	5	4243	4244
3130	5	4243	4245
3131	5	4246	4247
3132	5	4246	4248
3133	5	4249	4250
3134	5	4249	4251
3135	5	4252	4253
3136	5	4252	4254
3137	5	4255	4256
3138	5	4255	4257
3139	5	4258	4259
3140	5	4258	4260
3141	5	4261	4262
3142	5	4261	4263
3143	5	4264	4265
3144	5	4264	4266
3145	5	4267	4268
3146	5	4267	4269
3147	5	4270	4271
3148	5	4270	4272
3149	5	4273	4274
3150	5	4273	4275
3151	5	4276	4277
3152	5	4276	4278
3153	5	4279	4280
3154	5	4279	4281
3155	5	4282	4283
3156	5	4282	4284
3157	5	4285	4286
3158	5	4285	4287
3159	5	4288	4289
3160	5	4288	4290
3161	5	4291	4292
3162	5	4291	4293
3163	5	4294	4295
3164	5	4294	4296
3165	5	4297	4298
3166	5	4297	4299
3167	5	4300	4301
3168	5	4300	4302
3169	5	4303	4304
3170	5	4303	4305
3171	5	4306	4307
3172	5	4306	4308
3173	5	4309	4310
3174	5	4309	4311
3175	5	4312	4313
3176	5	4312	4314
3177	5	4315	4316
3178	5	4315	4317
3179	5	4318	4319
3180	5	4318	4320
3181	5	4321	4322
3182	5	4321	4323
3183	5	4324	4325
3184	5	4324	4326
3185	5	4327	4328
3186	5	4327	4329
3187	5	4330	4331
3188	5	4330	4332
3189	5	4333	4334
3190	5	4333	4335
3191	5	4336	4337
3192	5	4336	4338
3193	5	4339	4340
3194	5	4339	4341
3195	5	4342	4343
3196	5	4342	4344
3197	5	4345	4346
3198	5	4345	4347
3199	5	4348	4349
3200	5	4348	4350
3201	5	4351	4352
3202	5	4351	4353
3203	5	4354	4355
3204	5	4354	4356
3205	5	4357	4358
3206	5	4357	4359
3207	5	4360	4361
3208	5	4360	4362
3209	5	4363	4364
3210	5	4363	4365
3211	5	4366	4367
3212	5	4366	4368
3213	5	4369	4370
3214	5	4369	4371
3215	5	4372	4373
3216	5	4372	4374
3217	5	4375	4376
3218	5	4375	4377
3219	5	4378	4379
3220	5	4378	4380
3221	5	4381	4382
3222	5	4381	4383
3223	5	4384	4385
3224	5	4384	4386
3225	5	4387	4388
3226	5	4387	4389
3227	5	4390	4391
3228	5	4390	4392
3229	5	4393	4394
3230	5	4393	4395
3231	5	4396	4397
3232	5	4396	4398
3233	5	4399	4400
3234	5	4399	4401
3235	5	4402	4403
3236	5	4402	4404
3237	5	4405	4406
3238	5	4405	4407
3239	5	4408	4409
3240	5	4408	4410
3241	5	4411	4412
3242	5	4411	4413
3243	5	4414	4415
3244	5	4414	4416
3245	5	4417	4418
3246	5	4417	4419
3247	5	4420	4421
3248	5	4420	4422
3249	5	4423	4424
3250	5	4423	4425
3251	5	4426	4427
3252	5	4426	4428
3253	5	4429	4430
3254	5	4429	4431
3255	5	4432	4433
3256	5	4432	4434
3257	5	4435	4436
3258	5	4435	4437
3259	5	4438	4439
3260	5	4438	4440
3261	5	4441	4442
3262	5	4441	4443
3263	5	4444	4445
3264	5	4444	4446
3265	5	4447	4448
3266	5	4447	4449
3267	5	4450	4451
3268	5	4450	4452
3269	5	4453	4454
3270	5	4453	4455
3271	5	4456	4457
3272	5	4456	4458
3273	5	4459	4460
3274	5	4459	4461
3275	5	4462	4463
3276	5	4462	4464
3277	5	4465	4466
3278	5	4465	4467
3279	5	4468	4469
3280	5	4468	4470
3281	5	4471	4472
3282	5	4471	4473
3283	5	4474	4475
3284	5	4474	4476
3285	5	4477	4478
3286	5	4477	4479
3287	5	4480	4481
3288	5	4480	4482
3289	5	4483	4484
3290	5	4483	4485
3291	5	4486	4487
3292	5	4486	4488
3293	5	4489	4490
3294	5	4489	4491
3295	5	4492	4493
3296	5	4492	4494
3297	5	4495	4496
3298	5	4495	4497
3299	5	4498	4499
3300	5	4498	4500
3301	5	4501	4502
3302	5	4501	4503
3303	5	4504	4505
3304	5	4504	4506
3305	5	4507	4508
3306	5	4507	4509
3307	5	4510	4511
3308	5	4510	4512
3309	5	4513	4514
3310	5	4513	4515
3311	5	4516	4517
3312	5	4516	4518
3313	5	4519	4520
3314	5	4519	4521
3315	5	4522	4523
3316	5	4522	4524
3317	5	4525	4526
3318	5	4525	4527
3319	5	4528	4529
3320	5	4528	4530
3321	5	4531	4532
3322	5	4531	4533
3323	5	4534	4535
3324	5	4534	4536
3325	5	4537	4538
3326	5	4537	4539
3327	5	4540	4541
3328	5	4540	4542
3329	5	4543	4544
3330	5	4543	4545
3331	5	4546	4547
3332	5	4546	4548
3333	5	4549	4550
3334	5	4549	4551
3335	5	4552	4553
3336	5	4552	4554
3337	5	4555	4556
3338	5	4555	4557
3339	5	4558	4559
3340	5	4558	4560
3341	5	4561	4562
3342	5	4561	4563
3343	5	4564	4565
3344	5	4564	4566
3345	5	4567	4568
3346	5	4567	4569
3347	5	4570	4571
3348	5	4570	4572
3349	5	4573	4574
3350	5	4573	4575
3351	5	4576	4577
3352	5	4576	4578
3353	5	4579	4580
3354	5	4579	4581
3355	5	4582	4583
3356	5	4582	4584
3357	5	4585	4586
3358	5	4585	4587
3359	5	4588	4589
3360	5	4588	4590
3361	5	4591	4592
3362	5	4591	4593
3363	5	4594	4595
3364	5	4594	4596
3365	5	4597	4598
3366	5	4597	4599
3367	5	4600	4601
3368	5	4600	4602
3369	5	4603	4604
3370	5	4603	4605
3371	5	4606	4607
3372	5	4606	4608
3373	5	4609	4610
3374	5	4609	4611
3375	5	4612	4613
3376	5	4612	4614
3377	5	4615	4616
3378	5	4615	4617
3379	5	4618	4619
3380	5	4618	4620
3381	5	4621	4622
3382	5	4621	4623
3383	5	4624	4625
3384	5	4624	4626
3385	5	4627	4628
3386	5	4627	4629
3387	5	4630	4631
3388	5	4630	4632
3389	5	4633	4634
3390	5	4633	4635
3391	5	4636	4637
3392	5	4636	4638
3393	5	4639	4640
3394	5	4639	4641
3395	5	4642	4643
3396	5	4642	4644
3397	5	4645	4646
3398	5	4645	4647
3399	5	4648	4649
3400	5	4648	4650
3401	5	4651	4652
3402	5	4651	4653
3403	5	4654	4655
3404	5	4654	4656
3405	5	4657	4658
3406	5	4657	4659
3407	5	4660	4661
3408	5	4660	4662
3409	5	4663	4664
3410	5	4663	4665
3411	5	4666	4667
3412	5	4666	4668
3413	5	4669	4670
3414	5	4669	4671
3415	5	4672	4673
3416	5	4672	4674
3417	5	4675	4676
3418	5	4675	4677
3419	5	4678	4679
3420	5	4678	4680
3421	5	4681	4682
3422	5	4681	4683
3423	5	4684	4685
3424	5	4684	4686
3425	5	4687	4688
3426	5	4687	4689
3427	5	4690	4691
3428	5	4690	4692
3429	5	4693	4694
3430	5	4693	4695
3431	5	4696	4697
3432	5	4696	4698
3433	5	4699	4700
3434	5	4699	4701
3435	5	4702	4703
3436	5	4702	4704
3437	5	4705	4706
3438	5	4705	4707
3439	5	4708	4709
3440	5	4708	4710
3441	5	4711	4712
3442	5	4711	4713
3443	5	4714	4715
3444	5	4714	4716
3445	5	4717	4718
3446	5	4717	4719
3447	5	4720	4721
3448	5	4720	4722
3449	5	4723	4724
3450	5	4723	4725
3451	5	4726	4727
3452	5	4726	4728
3453	5	4729	4730
3454	5	4729	4731
3455	5	4732	4733
3456	5	4732	4734
3457	5	4735	4736
3458	5	4735	4737
3459	5	4738	4739
3460	5	4738	4740
3461	5	4741	4742
3462	5	4741	4743
3463	5	4744	4745
3464	5	4744	4746
3465	5	4747	4748
3466	5	4747	4749
3467	5	4750	4751
3468	5	4750	4752
3469	5	4753	4754
3470	5	4753	4755
3471	5	4756	4757
3472	5	4756	4758
3473	5	4759	4760
3474	5	4759	4761
3475	5	4762	4763
3476	5	4762	4764
3477	5	4765	4766
3478	5	4765	4767
3479	5	4768	4769
3480	5	4768	4770
3481	5	4771	4772
3482	5	4771	4773
3483	5	4774	4775
3484	5	4774	4776
3485	5	4777	4778
3486	5	4777	4779
3487	5	4780	4781
3488	5	4780	4782
3489	5	4783	4784
3490	5	4783	4785
3491	5	4786	4787
3492	5	4786	4788
3493	5	4789	4790
3494	5	4789	4791
3495	5	4792	4793
3496	5	4792	4794
3497	5	4795	4796
3498	5	4795	4797
3499	5	4798	4799
3500	5	4798	4800
3501	5	4801	4802
3502	5	4801	4803
3503	5	4804	4805
3504	5	4804	4806
3505	5	4807	4808
3506	5	4807	4809
3507	5	4810	4811
3508	5	4810	4812
3509	5	4813	4814
3510	5	4813	4815
3511	5	4816	4817
3512	5	4816	4818
3513	5	4819	4820
3514	5	4819	4821
3515	5	4822	4823
3516	5	4822	4824
3517	5	4825	4826
3518	5	4825	4827
3519	5	4828	4829
3520	5	4828	4830
3521	5	4831	4832
3522	5	4831	4833
3523	5	4834	4835
3524	5	4834	4836
3525	5	4837	4838
3526	5	4837	4839
3527	5	4840	4841
3528	5	4840	4842
3529	5	4843	4844
3530	5	4843	4845
3531	5	4846	4847
3532	5	4846	4848
3533	5	4849	4850
3534	5	4849	4851
3535	5	4852	4853
3536	5	4852	4854
3537	5	4855	4856
3538	5	4855	4857
3539	5	4858	4859
3540	5	4858	4860
3541	5	4861	4862
3542	5	4861	4863
3543	5	4864	4865
3544	5	4864	4866
3545	5	4867	4868
3546	5	4867	4869
3547	5	4870	4871
3548	5	4870	4872
3549	5	4873	4874
3550	5	4873	4875
3551	5	4876	4877
3552	5	4876	4878
3553	5	4879	4880
3554	5	4879	4881
3555	5	4882	4883
3556	5	4882	4884
3557	5	4885	4886
3558	5	4885	4887
3559	5	4888	4889
3560	5	4888	4890
3561	5	4891	4892
3562	5	4891	4893
3563	5	4894	4895
3564	5	4894	4896
3565	5	4897	4898
3566	5	4897	4899
3567	5	4900	4901
3568	5	4900	4902
3569	5	4903	4904
3570	5	4903	4905
3571	5	4906	4907
3572	5	4906	4908
3573	5	4909	4910
3574	5	4909	4911
3575	5	4912	4913
3576	5	4912	4914
3577	5	4915	4916
3578	5	4915	4917
3579	5	4918	4919
3580	5	4918	4920
3581	5	4921	4922
3582	5	4921	4923
3583	5	4924	4925
3584	5	4924	4926
3585	5	4927	4928
3586	5	4927	4929
3587	5	4930	4931
3588	5	4930	4932
3589	5	4933	4934
3590	5	4933	4935
3591	5	4936	4937
3592	5	4936	4938
3593	5	4939	4940
3594	5	4939	4941
3595	5	4942	4943
3596	5	4942	4944
3597	5	4945	4946
3598	5	4945	4947
3599	5	4948	4949
3600	5	4948	4950
3601	5	4951	4952
3602	5	4951	4953
3603	5	4954	4955
3604	5	4954	4956
3605	5	4957	4958
3606	5	4957	4959
3607	5	4960	4961
3608	5	4960	4962
3609	5	4963	4964
3610	5	4963	4965
3611	5	4966	4967
3612	5	4966	4968
3613	5	4969	4970
3614	5	4969	4971
3615	5	4972	4973
3616	5	4972	4974
3617	5	4975	4976
3618	5	4975	4977
3619	5	4978	4979
3620	5	4978	4980
3621	5	4981	4982
3622	5	4981	4983
3623	5	4984	4985
3624	5	4984	4986
3625	5	4987	4988
3626	5	4987	4989
3627	5	4990	4991
3628	5	4990	4992
3629	5	4993	4994
3630	5	4993	4995
3631	5	4996	4997
3632	5	4996	4998
3633	5	4999	5000
3634	5	4999	5001
3635	5	5002	5003
3636	5	5002	5004
3637	5	5005	5006
3638	5	5005	5007
3639	5	5008	5009
3640	5	5008	5010
3641	5	5011	5012
3642	5	5011	5013
3643	5	5014	5015
3644	5	5014	5016
3645	5	5017	5018
3646	5	5017	5019
3647	5	5020	5021
3648	5	5020	5022
3649	5	5023	5024
3650	5	5023	5025
3651	5	5026	5027
3652	5	5026	5028
3653	5	5029	5030
3654	5	5029	5031
3655	5	5032	5033
3656	5	5032	5034
3657	5	5035	5036
3658	5	5035	5037
3659	5	5038	5039
3660	5	5038	5040
3661	5	5041	5042
3662	5	5041	5043
3663	5	5044	5045
3664	5	5044	5046
3665	5	5047	5048
3666	5	5047	5049
3667	5	5050	5051
3668	5	5050	5052
3669	5	5053	5054
3670	5	5053	5055
3671	5	5056	5057
3672	5	5056	5058
3673	5	5059	5060
3674	5	5059	5061
3675	5	5062	5063
3676	5	5062	5064
3677	5	5065	5066
3678	5	5065	5067
3679	5	5068	5069
3680	5	5068	5070
3681	5	5071	5072
3682	5	5071	5073
3683	5	5074	5075
3684	5	5074	5076
3685	5	5077	5078
3686	5	5077	5079
3687	5	5080	5081
3688	5	5080	5082
3689	5	5083	5084
3690	5	5083	5085
3691	5	5086	5087
3692	5	5086	5088
3693	5	5089	5090
3694	5	5089	5091
3695	5	5092	5093
3696	5	5092	5094
3697	5	5095	5096
3698	5	5095	5097
3699	5	5098	5099
3700	5	5098	5100
3701	5	5101	5102
3702	5	5101	5103
3703	5	5104	5105
3704	5	5104	5106
3705	5	5107	5108
3706	5	5107	5109
3707	5	5110	5111
3708	5	5110	5112
3709	5	5113	5114
3710	5	5113	5115
3711	5	5116	5117
3712	5	5116	5118
3713	5	5119	5120
3714	5	5119	5121
3715	5	5122	5123
3716	5	5122	5124
3717	5	5125	5126
3718	5	5125	5127
3719	5	5128	5129
3720	5	5128	5130
3721	5	5131	5132
3722	5	5131	5133
3723	5	5134	5135
3724	5	5134	5136
3725	5	5137	5138
3726	5	5137	5139
3727	5	5140	5141
3728	5	5140	5142
3729	5	5143	5144
3730	5	5143	5145
3731	5	5146	5147
3732	5	5146	5148
3733	5	5149	5150
3734	5	5149	5151
3735	5	5152	5153
3736	5	5152	5154
3737	5	5155	5156
3738	5	5155	5157
3739	5	5158	5159
3740	5	5158	5160
3741	5	5161	5162
3742	5	5161	5163
3743	5	5164	5165
3744	5	5164	5166
3745	5	5167	5168
3746	5	5167	5169
3747	5	5170	5171
3748	5	5170	5172
3749	5	5173	5174
3750	5	5173	5175
3751	5	5176	5177
3752	5	5176	5178
3753	5	5179	5180
3754	5	5179	5181
3755	5	5182	5183
3756	5	5182	5184
3757	5	5185	5186
3758	5	5185	5187
3759	5	5188	5189
3760	5	5188	5190
3761	5	5191	5192
3762	5	5191	5193
3763	5	5194	5195
3764	5	5194	5196
3765	5	5197	5198
3766	5	5197	5199
3767	5	5200	5201
3768	5	5200	5202
3769	5	5203	5204
3770	5	5203	5205
3771	5	5206	5207
3772	5	5206	5208
3773	5	5209	5210
3774	5	5209	5211
3775	5	5212	5213
3776	5	5212	5214
3777	5	5215	5216
3778	5	5215	5217
3779	5	5218	5219
3780	5	5218	5220
3781	5	5221	5222
3782	5	5221	5223
3783	5	5224	5225
3784	5	5224	5226
3785	5	5227	5228
3786	5	5227	5229
3787	5	5230	5231
3788	5	5230	5232
3789	5	5233	5234
3790	5	5233	5235
3791	5	5236	5237
3792	5	5236	5238
3793	5	5239	5240
3794	5	5239	5241
3795	5	5242	5243
3796	5	5242	5244
3797	5	5245	5246
3798	5	5245	5247
3799	5	5248	5249
3800	5	5248	5250
3801	5	5251	5252
3802	5	5251	5253
3803	5	5254	5255
3804	5	5254	5256
3805	5	5257	5258
3806	5	5257	5259
3807	5	5260	5261
3808	5	5260	5262
3809	5	5263	5264
3810	5	5263	5265
3811	5	5266	5267
3812	5	5266	5268
3813	5	5269	5270
3814	5	5269	5271
3815	5	5272	5273
3816	5	5272	5274
3817	5	5275	5276
3818	5	5275	5277
3819	5	5278	5279
3820	5	5278	5280
3821	5	5281	5282
3822	5	5281	5283
3823	5	5284	5285
3824	5	5284	5286
3825	5	5287	5288
3826	5	5287	5289
3827	5	5290	5291
3828	5	5290	5292
3829	5	5293	5294
3830	5	5293	5295
3831	5	5296	5297
3832	5	5296	5298
3833	5	5299	5300
3834	5	5299	5301
3835	5	5302	5303
3836	5	5302	5304
3837	5	5305	5306
3838	5	5305	5307
3839	5	5308	5309
3840	5	5308	5310
3841	5	5311	5312
3842	5	5311	5313
3843	5	5314	5315
3844	5	5314	5316
3845	5	5317	5318
3846	5	5317	5319
3847	5	5320	5321
3848	5	5320	5322
3849	5	5323	5324
3850	5	5323	5325
3851	5	5326	5327
3852	5	5326	5328
3853	5	5329	5330
3854	5	5329	5331
3855	5	5332	5333
3856	5	5332	5334
3857	5	5335	5336
3858	5	5335	5337
3859	5	5338	5339
3860	5	5338	5340
3861	5	5341	5342
3862	5	5341	5343
3863	5	5344	5345
3864	5	5344	5346
3865	5	5347	5348
3866	5	5347	5349
3867	5	5350	5351
3868	5	5350	5352
3869	5	5353	5354
3870	5	5353	5355
3871	5	5356	5357
3872	5	5356	5358
3873	5	5359	5360
3874	5	5359	5361
3875	5	5362	5363
3876	5	5362	5364
3877	5	5365	5366
3878	5	5365	5367
3879	5	5368	5369
3880	5	5368	5370
3881	5	5371	5372
3882	5	5371	5373
3883	5	5374	5375
3884	5	5374	5376
3885	5	5377	5378
3886	5	5377	5379
3887	5	5380	5381
3888	5	5380	5382
3889	5	5383	5384
3890	5	5383	5385
3891	5	5386	5387
3892	5	5386	5388
3893	5	5389	5390
3894	5	5389	5391
3895	5	5392	5393
3896	5	5392	5394
3897	5	5395	5396
3898	5	5395	5397
3899	5	5398	5399
3900	5	5398	5400
3901	5	5401	5402
3902	5	5401	5403
3903	5	5404	5405
3904	5	5404	5406
3905	5	5407	5408
3906	5	5407	5409
3907	5	5410	5411
3908	5	5410	5412
3909	5	5413	5414
3910	5	5413	5415
3911	5	5416	5417
3912	5	5416	5418
3913	5	5419	5420
3914	5	5419	5421
3915	5	5422	5423
3916	5	5422	5424
3917	5	5425	5426
3918	5	5425	5427
3919	5	5428	5429
3920	5	5428	5430
3921	5	5431	5432
3922	5	5431	5433
3923	5	5434	5435
3924	5	5434	5436
3925	5	5437	5438
3926	5	5437	5439
3927	5	5440	5441
3928	5	5440	5442
3929	5	5443	5444
3930	5	5443	5445
3931	5	5446	5447
3932	5	5446	5448
3933	5	5449	5450
3934	5	5449	5451
3935	5	5452	5453
3936	5	5452	5454
3937	5	5455	5456
3938	5	5455	5457
3939	5	5458	5459
3940	5	5458	5460
3941	5	5461	5462
3942	5	5461	5463
3943	5	5464	5465
3944	5	5464	5466
3945	5	5467	5468
3946	5	5467	5469
3947	5	5470	5471
3948	5	5470	5472
3949	5	5473	5474
3950	5	5473	5475
3951	5	5476	5477
3952	5	5476	5478
3953	5	5479	5480
3954	5	5479	5481
3955	5	5482	5483
3956	5	5482	5484
3957	5	5485	5486
3958	5	5485	5487
3959	5	5488	5489
3960	5	5488	5490
3961	5	5491	5492
3962	5	5491	5493
3963	5	5494	5495
3964	5	5494	5496
3965	5	5497	5498
3966	5	5497	5499
3967	5	5500	5501
3968	5	5500	5502
3969	5	5503	5504
3970	5	5503	5505
3971	5	5506	5507
3972	5	5506	5508
3973	5	5509	5510
3974	5	5509	5511
3975	5	5512	5513
3976	5	5512	5514
3977	5	5515	5516
3978	5	5515	5517
3979	5	5518	5519
3980	5	5518	5520
3981	5	5521	5522
3982	5	5521	5523
3983	5	5524	5525
3984	5	5524	5526
3985	5	5527	5528
3986	5	5527	5529
3987	5	5530	5531
3988	5	5530	5532
3989	5	5533	5534
3990	5	5533	5535
3991	5	5536	5537
3992	5	5536	5538
3993	5	5539	5540
3994	5	5539	5541
3995	5	5542	5543
3996	5	5542	5544
3997	5	5545	5546
3998	5	5545	5547
3999	5	5548	5549
4000	5	5548	5550
4001	5	5551	5552
4002	5	5551	5553
4003	5	5554	5555
4004	5	5554	5556
4005	5	5557	5558
4006	5	5557	5559
4007	5	5560	5561
4008	5	5560	5562
4009	5	5563	5564
4010	5	5563	5565
4011	5	5566	5567
4012	5	5566	5568
4013	5	5569	5570
4014	5	5569	5571
4015	5	5572	5573
4016	5	5572	5574
4017	5	5575	5576
4018	5	5575	5577
4019	5	5578	5579
4020	5	5578	5580
4021	5	5581	5582
4022	5	5581	5583
4023	5	5584	5585
4024	5	5584	5586
4025	5	5587	5588
4026	5	5587	5589
4027	5	5590	5591
4028	5	5590	5592
4029	5	5593	5594
4030	5	5593	5595
4031	5	5596	5597
4032	5	5596	5598
4033	5	5599	5600
4034	5	5599	5601
4035	5	5602	5603
4036	5	5602	5604
4037	5	5605	5606
4038	5	5605	5607
4039	5	5608	5609
4040	5	5608	5610
4041	5	5611	5612
4042	5	5611	5613
4043	5	5614	5615
4044	5	5614	5616
4045	5	5617	5618
4046	5	5617	5619
4047	5	5620	5621
4048	5	5620	5622
4049	5	5623	5624
4050	5	5623	5625
4051	5	5626	5627
4052	5	5626	5628
4053	5	5629	5630
4054	5	5629	5631
4055	5	5632	5633
4056	5	5632	5634
4057	5	5635	5636
4058	5	5635	5637
4059	5	5638	5639
4060	5	5638	5640
4061	5	5641	5642
4062	5	5641	5643
4063	5	5644	5645
4064	5	5644	5646
4065	5	5647	5648
4066	5	5647	5649
4067	5	5650	5651
4068	5	5650	5652
4069	5	5653	5654
4070	5	5653	5655
4071	5	5656	5657
4072	5	5656	5658
4073	5	5659	5660
4074	5	5659	5661
4075	5	5662	5663
4076	5	5662	5664
4077	5	5665	5666
4078	5	5665	5667
4079	5	5668	5669
4080	5	5668	5670
4081	5	5671	5672
4082	5	5671	5673
4083	5	5674	5675
4084	5	5674	5676
4085	5	5677	5678
4086	5	5677	5679
4087	5	5680	5681
4088	5	5680	5682
4089	5	5683	5684
4090	5	5683	5685
4091	5	5686	5687
4092	5	5686	5688
4093	5	5689	5690
4094	5	5689	5691
4095	5	5692	5693
4096	5	5692	5694
4097	5	5695	5696
4098	5	5695	5697
4099	5	5698	5699
4100	5	5698	5700
4101	5	5701	5702
4102	5	5701	5703
4103	5	5704	5705
4104	5	5704	5706
4105	5	5707	5708
4106	5	5707	5709
4107	5	5710	5711
4108	5	5710	5712
4109	5	5713	5714
4110	5	5713	5715
4111	5	5716	5717
4112	5	5716	5718
4113	5	5719	5720
4114	5	5719	5721
4115	5	5722	5723
4116	5	5722	5724
4117	5	5725	5726
4118	5	5725	5727
4119	5	5728	5729
4120	5	5728	5730
4121	5	5731	5732
4122	5	5731	5733
4123	5	5734	5735
4124	5	5734	5736
4125	5	5737	5738
4126	5	5737	5739
4127	5	5740	5741
4128	5	5740	5742
4129	5	5743	5744
4130	5	5743	5745
4131	5	5746	5747
4132	5	5746	5748
4133	5	5749	5750
4134	5	5749	5751
4135	5	5752	5753
4136	5	5752	5754
4137	5	5755	5756
4138	5	5755	5757
4139	5	5758	5759
4140	5	5758	5760
4141	5	5761	5762
4142	5	5761	5763
4143	5	5764	5765
4144	5	5764	5766
4145	5	5767	5768
4146	5	5767	5769
4147	5	5770	5771
4148	5	5770	5772
4149	5	5773	5774
4150	5	5773	5775
4151	5	5776	5777
4152	5	5776	5778
4153	5	5779	5780
4154	5	5779	5781
4155	5	5782	5783
4156	5	5782	5784
4157	5	5785	5786
4158	5	5785	5787
4159	5	5788	5789
4160	5	5788	5790
4161	5	5791	5792
4162	5	5791	5793
4163	5	5794	5795
4164	5	5794	5796
4165	5	5797	5798
4166	5	5797	5799
4167	5	5800	5801
4168	5	5800	5802
4169	5	5803	5804
4170	5	5803	5805
4171	5	5806	5807
4172	5	5806	5808
4173	5	5809	5810
4174	5	5809	5811
4175	5	5812	5813
4176	5	5812	5814
4177	5	5815	5816
4178	5	5815	5817
4179	5	5818	5819
4180	5	5818	5820
4181	5	5821	5822
4182	5	5821	5823
4183	5	5824	5825
4184	5	5824	5826
4185	5	5827	5828
4186	5	5827	5829
4187	5	5830	5831
4188	5	5830	5832
4189	5	5833	5834
4190	5	5833	5835
4191	5	5836	5837
4192	5	5836	5838
4193	5	5839	5840
4194	5	5839	5841
4195	5	5842	5843
4196	5	5842	5844
4197	5	5845	5846
4198	5	5845	5847
4199	5	5848	5849
4200	5	5848	5850
4201	5	5851	5852
4202	5	5851	5853
4203	5	5854	5855
4204	5	5854	5856
4205	5	5857	5858
4206	5	5857	5859
4207	5	5860	5861
4208	5	5860	5862
4209	5	5863	5864
4210	5	5863	5865
4211	5	5866	5867
4212	5	5866	5868
4213	5	5869	5870
4214	5	5869	5871
4215	5	5872	5873
4216	5	5872	5874
4217	5	5875	5876
4218	5	5875	5877
4219	5	5878	5879
4220	5	5878	5880
4221	5	5881	5882
4222	5	5881	5883
4223	5	5884	5885
4224	5	5884	5886
4225	5	5887	5888
4226	5	5887	5889
4227	5	5890	5891
4228	5	5890	5892
4229	5	5893	5894
4230	5	5893	5895
4231	5	5896	5897
4232	5	5896	5898
4233	5	5899	5900
4234	5	5899	5901
4235	5	5902	5903
4236	5	5902	5904
4237	5	5905	5906
4238	5	5905	5907
4239	5	5908	5909
4240	5	5908	5910
4241	5	5911	5912
4242	5	5911	5913
4243	5	5914	5915
4244	5	5914	5916
4245	5	5917	5918
4246	5	5917	5919
4247	5	5920	5921
4248	5	5920	5922
4249	5	5923	5924
4250	5	5923	5925
4251	5	5926	5927
4252	5	5926	5928
4253	5	5929	5930
4254	5	5929	5931
4255	5	5932	5933
4256	5	5932	5934
4257	5	5935	5936
4258	5	5935	5937
4259	5	5938	5939
4260	5	5938	5940
4261	5	5941	5942
4262	5	5941	5943
4263	5	5944	5945
4264	5	5944	5946
4265	5	5947	5948
4266	5	5947	5949
4267	5	5950	5951
4268	5	5950	5952
4269	5	5953	5954
4270	5	5953	5955
4271	5	5956	5957
4272	5	5956	5958
4273	5	5959	5960
4274	5	5959	5961
4275	5	5962	5963
4276	5	5962	5964
4277	5	5965	5966
4278	5	5965	5967
4279	5	5968	5969
4280	5	5968	5970
4281	5	5971	5972
4282	5	5971	5973
4283	5	5974	5975
4284	5	5974	5976
4285	5	5977	5978
4286	5	5977	5979
4287	5	5980	5981
4288	5	5980	5982
4289	5	5983	5984
4290	5	5983	5985
4291	5	5986	5987
4292	5	5986	5988
4293	5	5989	5990
4294	5	5989	5991
4295	5	5992	5993
4296	5	5992	5994
4297	5	5995	5996
4298	5	5995	5997
4299	5	5998	5999
4300	5	5998	6000
4301	5	6001	6002
4302	5	6001	6003
4303	5	6004	6005
4304	5	6004	6006
4305	5	6007	6008
4306	5	6007	6009
4307	5	6010	6011
4308	5	6010	6012
4309	5	6013	6014
4310	5	6013	6015
4311	5	6016	6017
4312	5	6016	6018
4313	5	6019	6020
4314	5	6019	6021
4315	5	6022	6023
4316	5	6022	6024
4317	5	6025	6026
4318	5	6025	6027
4319	5	6028	6029
4320	5	6028	6030
4321	5	6031	6032
4322	5	6031	6033
4323	5	6034	6035
4324	5	6034	6036
4325	5	6037	6038
4326	5	6037	6039
4327	5	6040	6041
4328	5	6040	6042
4329	5	6043	6044
4330	5	6043	6045
4331	5	6046	6047
4332	5	6046	6048
4333	5	6049	6050
4334	5	6049	6051
4335	5	6052	6053
4336	5	6052	6054
4337	5	6055	6056
4338	5	6055	6057
4339	5	6058	6059
4340	5	6058	6060
4341	5	6061	6062
4342	5	6061	6063
4343	5	6064	6065
4344	5	6064	6066
4345	5	6067	6068
4346	5	6067	6069
4347	5	6070	6071
4348	5	6070	6072
4349	5	6073	6074
4350	5	6073	6075
4351	5	6076	6077
4352	5	6076	6078
4353	5	6079	6080
4354	5	6079	6081
4355	5	6082	6083
4356	5	6082	6084
4357	5	6085	6086
4358	5	6085	6087
4359	5	6088	6089
4360	5	6088	6090
4361	5	6091	6092
4362	5	6091	6093
4363	5	6094	6095
4364	5	6094	6096
4365	5	6097	6098
4366	5	6097	6099
4367	5	6100	6101
4368	5	6100	6102
4369	5	6103	6104
4370	5	6103	6105
4371	5	6106	6107
4372	5	6106	6108
4373	5	6109	6110
4374	5	6109	6111
4375	5	6112	6113
4376	5	6112	6114
4377	5	6115	6116
4378	5	6115	6117
4379	5	6118	6119
4380	5	6118	6120
4381	5	6121	6122
4382	5	6121	6123
4383	5	6124	6125
4384	5	6124	6126
4385	5	6127	6128
4386	5	6127	6129
4387	5	6130	6131
4388	5	6130	6132
4389	5	6133	6134
4390	5	6133	6135
4391	5	6136	6137
4392	5	6136	6138
4393	5	6139	6140
4394	5	6139	6141
4395	5	6142	6143
4396	5	6142	6144
4397	5	6145	6146
4398	5	6145	6147
4399	5	6148	6149
4400	5	6148	6150
4401	5	6151	6152
4402	5	6151	6153
4403	5	6154	6155
4404	5	6154	6156
4405	5	6157	6158
4406	5	6157	6159
4407	5	6160	6161
4408	5	6160	6162
4409	5	6163	6164
4410	5	6163	6165
4411	5	6166	6167
4412	5	6166	6168
4413	5	6169	6170
4414	5	6169	6171
4415	5	6172	6173
4416	5	6172	6174
4417	5	6175	6176
4418	5	6175	6177
4419	5	6178	6179
4420	5	6178	6180
4421	5	6181	6182
4422	5	6181	6183
4423	5	6184	6185
4424	5	6184	6186
4425	5	6187	6188
4426	5	6187	6189
4427	5	6190	6191
4428	5	6190	6192
4429	5	6193	6194
4430	5	6193	6195
4431	5	6196	6197
4432	5	6196	6198
4433	5	6199	6200
4434	5	6199	6201
4435	5	6202	6203
4436	5	6202	6204
4437	5	6205	6206
4438	5	6205	6207
4439	5	6208	6209
4440	5	6208	6210
4441	5	6211	6212
4442	5	6211	6213
4443	5	6214	6215
4444	5	6214	6216
4445	5	6217	6218
4446	5	6217	6219
4447	5	6220	6221
4448	5	6220	6222
4449	5	6223	6224
4450	5	6223	6225
4451	5	6226	6227
4452	5	6226	6228
4453	5	6229	6230
4454	5	6229	6231
4455	5	6232	6233
4456	5	6232	6234
4457	5	6235	6236
4458	5	6235	6237
4459	5	6238	6239
4460	5	6238	6240
4461	5	6241	6242
4462	5	6241	6243
4463	5	6244	6245
4464	5	6244	6246
4465	5	6247	6248
4466	5	6247	6249
4467	5	6250	6251
4468	5	6250	6252
4469	5	6253	6254
4470	5	6253	6255
4471	5	6256	6257
4472	5	6256	6258
4473	5	6259	6260
4474	5	6259	6261
4475	5	6262	6263
4476	5	6262	6264
4477	5	6265	6266
4478	5	6265	6267
4479	5	6268	6269
4480	5	6268	6270
4481	5	6271	6272
4482	5	6271	6273
4483	5	6274	6275
4484	5	6274	6276
4485	5	6277	6278
4486	5	6277	6279
4487	5	6280	6281
4488	5	6280	6282
4489	5	6283	6284
4490	5	6283	6285
4491	5	6286	6287
4492	5	6286	6288
4493	5	6289	6290
4494	5	6289	6291
4495	5	6292	6293
4496	5	6292	6294
4497	5	6295	6296
4498	5	6295	6297
4499	5	6298	6299
4500	5	6298	6300
4501	5	6301	6302
4502	5	6301	6303
4503	5	6304	6305
4504	5	6304	6306
4505	5	6307	6308
4506	5	6307	6309
4507	5	6310	6311
4508	5	6310	6312
4509	5	6313	6314
4510	5	6313	6315
4511	5	6316	6317
4512	5	6316	6318
4513	5	6319	6320
4514	5	6319	6321
4515	5	6322	6323
4516	5	6322	6324
4517	5	6325	6326
4518	5	6325	6327
4519	5	6328	6329
4520	5	6328	6330
4521	5	6331	6332
4522	5	6331	6333
4523	5	6334	6335
4524	5	6334	6336

Angles

1   1   2 1 127     # C_R N_2 N_2
2   2   1 2 3     # N_2 C_R H_
3   3   1 2 4     # N_2 C_R C_R
4   4   3 2 4     # H_ C_R C_R
5   5   2 4 5     # C_R C_R C_R
6   5   2 4 11     # C_R C_R C_R
7   5   5 4 11     # C_R C_R C_R
8   5   4 5 16     # C_R C_R C_R
9   6   4 5 18     # C_R C_R H_
10   6   16 5 18     # C_R C_R H_
11   1   8 7 25     # C_R N_2 N_2
12   2   7 8 9     # N_2 C_R H_
13   3   7 8 10     # N_2 C_R C_R
14   4   9 8 10     # H_ C_R C_R
15   5   8 10 11     # C_R C_R C_R
16   5   8 10 17     # C_R C_R C_R
17   5   11 10 17     # C_R C_R C_R
18   6   4 11 6     # C_R C_R H_
19   5   4 11 10     # C_R C_R C_R
20   4   6 11 10     # H_ C_R C_R
21   1   14 13 103     # C_R N_2 N_2
22   2   13 14 15     # N_2 C_R H_
23   3   13 14 16     # N_2 C_R C_R
24   4   15 14 16     # H_ C_R C_R
25   5   5 16 14     # C_R C_R C_R
26   5   5 16 17     # C_R C_R C_R
27   5   14 16 17     # C_R C_R C_R
28   6   10 17 12     # C_R C_R H_
29   5   10 17 16     # C_R C_R C_R
30   4   12 17 16     # H_ C_R C_R
31   1   20 19 37     # C_R N_2 N_2
32   2   19 20 21     # N_2 C_R H_
33   3   19 20 22     # N_2 C_R C_R
34   4   21 20 22     # H_ C_R C_R
35   5   20 22 23     # C_R C_R C_R
36   5   20 22 29     # C_R C_R C_R
37   5   23 22 29     # C_R C_R C_R
38   5   22 23 34     # C_R C_R C_R
39   6   22 23 36     # C_R C_R H_
40   6   34 23 36     # C_R C_R H_
41   7   7 25 26     # N_2 N_2 C_R
42   2   25 26 27     # N_2 C_R H_
43   3   25 26 28     # N_2 C_R C_R
44   4   27 26 28     # H_ C_R C_R
45   5   26 28 29     # C_R C_R C_R
46   5   26 28 35     # C_R C_R C_R
47   5   29 28 35     # C_R C_R C_R
48   6   22 29 24     # C_R C_R H_
49   5   22 29 28     # C_R C_R C_R
50   4   24 29 28     # H_ C_R C_R
51   1   32 31 85     # C_R N_2 N_2
52   2   31 32 33     # N_2 C_R H_
53   3   31 32 34     # N_2 C_R C_R
54   4   33 32 34     # H_ C_R C_R
55   5   23 34 32     # C_R C_R C_R
56   5   23 34 35     # C_R C_R C_R
57   5   32 34 35     # C_R C_R C_R
58   6   28 35 30     # C_R C_R H_
59   5   28 35 34     # C_R C_R C_R
60   4   30 35 34     # H_ C_R C_R
61   7   19 37 38     # N_2 N_2 C_R
62   2   37 38 39     # N_2 C_R H_
63   3   37 38 40     # N_2 C_R C_R
64   4   39 38 40     # H_ C_R C_R
65   5   38 40 41     # C_R C_R C_R
66   5   38 40 47     # C_R C_R C_R
67   5   41 40 47     # C_R C_R C_R
68   5   40 41 52     # C_R C_R C_R
69   6   40 41 54     # C_R C_R H_
70   6   52 41 54     # C_R C_R H_
71   1   44 43 61     # C_R N_2 N_2
72   2   43 44 45     # N_2 C_R H_
73   3   43 44 46     # N_2 C_R C_R
74   4   45 44 46     # H_ C_R C_R
75   5   44 46 47     # C_R C_R C_R
76   5   44 46 53     # C_R C_R C_R
77   5   47 46 53     # C_R C_R C_R
78   6   40 47 42     # C_R C_R H_
79   5   40 47 46     # C_R C_R C_R
80   4   42 47 46     # H_ C_R C_R
81   1   50 49 139     # C_R N_2 N_2
82   2   49 50 51     # N_2 C_R H_
83   3   49 50 52     # N_2 C_R C_R
84   4   51 50 52     # H_ C_R C_R
85   5   41 52 50     # C_R C_R C_R
86   5   41 52 53     # C_R C_R C_R
87   5   50 52 53     # C_R C_R C_R
88   6   46 53 48     # C_R C_R H_
89   5   46 53 52     # C_R C_R C_R
90   4   48 53 52     # H_ C_R C_R
91   1   56 55 73     # C_R N_2 N_2
92   2   55 56 57     # N_2 C_R H_
93   3   55 56 58     # N_2 C_R C_R
94   4   57 56 58     # H_ C_R C_R
95   5   56 58 59     # C_R C_R C_R
96   5   56 58 65     # C_R C_R C_R
97   5   59 58 65     # C_R C_R C_R
98   5   58 59 70     # C_R C_R C_R
99   6   58 59 72     # C_R C_R H_
100   6   70 59 72     # C_R C_R H_
101   7   43 61 62     # N_2 N_2 C_R
102   2   61 62 63     # N_2 C_R H_
103   3   61 62 64     # N_2 C_R C_R
104   4   63 62 64     # H_ C_R C_R
105   5   62 64 65     # C_R C_R C_R
106   5   62 64 71     # C_R C_R C_R
107   5   65 64 71     # C_R C_R C_R
108   6   58 65 60     # C_R C_R H_
109   5   58 65 64     # C_R C_R C_R
110   4   60 65 64     # H_ C_R C_R
111   1   68 67 121     # C_R N_2 N_2
112   2   67 68 69     # N_2 C_R H_
113   3   67 68 70     # N_2 C_R C_R
114   4   69 68 70     # H_ C_R C_R
115   5   59 70 68     # C_R C_R C_R
116   5   59 70 71     # C_R C_R C_R
117   5   68 70 71     # C_R C_R C_R
118   6   64 71 66     # C_R C_R H_
119   5   64 71 70     # C_R C_R C_R
120   4   66 71 70     # H_ C_R C_R
121   7   55 73 74     # N_2 N_2 C_R
122   2   73 74 75     # N_2 C_R H_
123   3   73 74 76     # N_2 C_R C_R
124   4   75 74 76     # H_ C_R C_R
125   5   74 76 77     # C_R C_R C_R
126   5   74 76 83     # C_R C_R C_R
127   5   77 76 83     # C_R C_R C_R
128   5   76 77 88     # C_R C_R C_R
129   6   76 77 90     # C_R C_R H_
130   6   88 77 90     # C_R C_R H_
131   1   80 79 97     # C_R N_2 N_2
132   2   79 80 81     # N_2 C_R H_
133   3   79 80 82     # N_2 C_R C_R
134   4   81 80 82     # H_ C_R C_R
135   5   80 82 83     # C_R C_R C_R
136   5   80 82 89     # C_R C_R C_R
137   5   83 82 89     # C_R C_R C_R
138   6   76 83 78     # C_R C_R H_
139   5   76 83 82     # C_R C_R C_R
140   4   78 83 82     # H_ C_R C_R
141   7   31 85 86     # N_2 N_2 C_R
142   2   85 86 87     # N_2 C_R H_
143   3   85 86 88     # N_2 C_R C_R
144   4   87 86 88     # H_ C_R C_R
145   5   77 88 86     # C_R C_R C_R
146   5   77 88 89     # C_R C_R C_R
147   5   86 88 89     # C_R C_R C_R
148   6   82 89 84     # C_R C_R H_
149   5   82 89 88     # C_R C_R C_R
150   4   84 89 88     # H_ C_R C_R
151   1   92 91 109     # C_R N_2 N_2
152   2   91 92 93     # N_2 C_R H_
153   3   91 92 94     # N_2 C_R C_R
154   4   93 92 94     # H_ C_R C_R
155   5   92 94 95     # C_R C_R C_R
156   5   92 94 101     # C_R C_R C_R
157   5   95 94 101     # C_R C_R C_R
158   5   94 95 106     # C_R C_R C_R
159   6   94 95 108     # C_R C_R H_
160   6   106 95 108     # C_R C_R H_
161   7   79 97 98     # N_2 N_2 C_R
162   2   97 98 99     # N_2 C_R H_
163   3   97 98 100     # N_2 C_R C_R
164   4   99 98 100     # H_ C_R C_R
165   5   98 100 101     # C_R C_R C_R
166   5   98 100 107     # C_R C_R C_R
167   5   101 100 107     # C_R C_R C_R
168   6   94 101 96     # C_R C_R H_
169   5   94 101 100     # C_R C_R C_R
170   4   96 101 100     # H_ C_R C_R
171   7   13 103 104     # N_2 N_2 C_R
172   2   103 104 105     # N_2 C_R H_
173   3   103 104 106     # N_2 C_R C_R
174   4   105 104 106     # H_ C_R C_R
175   5   95 106 104     # C_R C_R C_R
176   5   95 106 107     # C_R C_R C_R
177   5   104 106 107     # C_R C_R C_R
178   6   100 107 102     # C_R C_R H_
179   5   100 107 106     # C_R C_R C_R
180   4   102 107 106     # H_ C_R C_R
181   7   91 109 110     # N_2 N_2 C_R
182   2   109 110 111     # N_2 C_R H_
183   3   109 110 112     # N_2 C_R C_R
184   4   111 110 112     # H_ C_R C_R
185   5   110 112 113     # C_R C_R C_R
186   5   110 112 119     # C_R C_R C_R
187   5   113 112 119     # C_R C_R C_R
188   5   112 113 124     # C_R C_R C_R
189   6   112 113 126     # C_R C_R H_
190   6   124 113 126     # C_R C_R H_
191   1   116 115 133     # C_R N_2 N_2
192   2   115 116 117     # N_2 C_R H_
193   3   115 116 118     # N_2 C_R C_R
194   4   117 116 118     # H_ C_R C_R
195   5   116 118 119     # C_R C_R C_R
196   5   116 118 125     # C_R C_R C_R
197   5   119 118 125     # C_R C_R C_R
198   6   112 119 114     # C_R C_R H_
199   5   112 119 118     # C_R C_R C_R
200   4   114 119 118     # H_ C_R C_R
201   7   67 121 122     # N_2 N_2 C_R
202   2   121 122 123     # N_2 C_R H_
203   3   121 122 124     # N_2 C_R C_R
204   4   123 122 124     # H_ C_R C_R
205   5   113 124 122     # C_R C_R C_R
206   5   113 124 125     # C_R C_R C_R
207   5   122 124 125     # C_R C_R C_R
208   6   118 125 120     # C_R C_R H_
209   5   118 125 124     # C_R C_R C_R
210   4   120 125 124     # H_ C_R C_R
211   7   1 127 128     # N_2 N_2 C_R
212   2   127 128 129     # N_2 C_R H_
213   3   127 128 130     # N_2 C_R C_R
214   4   129 128 130     # H_ C_R C_R
215   5   128 130 131     # C_R C_R C_R
216   5   128 130 137     # C_R C_R C_R
217   5   131 130 137     # C_R C_R C_R
218   5   130 131 142     # C_R C_R C_R
219   6   130 131 144     # C_R C_R H_
220   6   142 131 144     # C_R C_R H_
221   7   115 133 134     # N_2 N_2 C_R
222   2   133 134 135     # N_2 C_R H_
223   3   133 134 136     # N_2 C_R C_R
224   4   135 134 136     # H_ C_R C_R
225   5   134 136 137     # C_R C_R C_R
226   5   134 136 143     # C_R C_R C_R
227   5   137 136 143     # C_R C_R C_R
228   6   130 137 132     # C_R C_R H_
229   5   130 137 136     # C_R C_R C_R
230   4   132 137 136     # H_ C_R C_R
231   7   49 139 140     # N_2 N_2 C_R
232   2   139 140 141     # N_2 C_R H_
233   3   139 140 142     # N_2 C_R C_R
234   4   141 140 142     # H_ C_R C_R
235   5   131 142 140     # C_R C_R C_R
236   5   131 142 143     # C_R C_R C_R
237   5   140 142 143     # C_R C_R C_R
238   6   136 143 138     # C_R C_R H_
239   5   136 143 142     # C_R C_R C_R
240   4   138 143 142     # H_ C_R C_R
241   1   146 145 271     # C_R N_2 N_2
242   2   145 146 147     # N_2 C_R H_
243   3   145 146 148     # N_2 C_R C_R
244   4   147 146 148     # H_ C_R C_R
245   5   146 148 149     # C_R C_R C_R
246   5   146 148 155     # C_R C_R C_R
247   5   149 148 155     # C_R C_R C_R
248   5   148 149 160     # C_R C_R C_R
249   6   148 149 162     # C_R C_R H_
250   6   160 149 162     # C_R C_R H_
251   1   152 151 169     # C_R N_2 N_2
252   2   151 152 153     # N_2 C_R H_
253   3   151 152 154     # N_2 C_R C_R
254   4   153 152 154     # H_ C_R C_R
255   5   152 154 155     # C_R C_R C_R
256   5   152 154 161     # C_R C_R C_R
257   5   155 154 161     # C_R C_R C_R
258   6   148 155 150     # C_R C_R H_
259   5   148 155 154     # C_R C_R C_R
260   4   150 155 154     # H_ C_R C_R
261   1   158 157 247     # C_R N_2 N_2
262   2   157 158 159     # N_2 C_R H_
263   3   157 158 160     # N_2 C_R C_R
264   4   159 158 160     # H_ C_R C_R
265   5   149 160 158     # C_R C_R C_R
266   5   149 160 161     # C_R C_R C_R
267   5   158 160 161     # C_R C_R C_R
268   6   154 161 156     # C_R C_R H_
269   5   154 161 160     # C_R C_R C_R
270   4   156 161 160     # H_ C_R C_R
271   1   164 163 181     # C_R N_2 N_2
272   2   163 164 165     # N_2 C_R H_
273   3   163 164 166     # N_2 C_R C_R
274   4   165 164 166     # H_ C_R C_R
275   5   164 166 167     # C_R C_R C_R
276   5   164 166 173     # C_R C_R C_R
277   5   167 166 173     # C_R C_R C_R
278   5   166 167 178     # C_R C_R C_R
279   6   166 167 180     # C_R C_R H_
280   6   178 167 180     # C_R C_R H_
281   7   151 169 170     # N_2 N_2 C_R
282   2   169 170 171     # N_2 C_R H_
283   3   169 170 172     # N_2 C_R C_R
284   4   171 170 172     # H_ C_R C_R
285   5   170 172 173     # C_R C_R C_R
286   5   170 172 179     # C_R C_R C_R
287   5   173 172 179     # C_R C_R C_R
288   6   166 173 168     # C_R C_R H_
289   5   166 173 172     # C_R C_R C_R
290   4   168 173 172     # H_ C_R C_R
291   1   176 175 229     # C_R N_2 N_2
292   2   175 176 177     # N_2 C_R H_
293   3   175 176 178     # N_2 C_R C_R
294   4   177 176 178     # H_ C_R C_R
295   5   167 178 176     # C_R C_R C_R
296   5   167 178 179     # C_R C_R C_R
297   5   176 178 179     # C_R C_R C_R
298   6   172 179 174     # C_R C_R H_
299   5   172 179 178     # C_R C_R C_R
300   4   174 179 178     # H_ C_R C_R
301   7   163 181 182     # N_2 N_2 C_R
302   2   181 182 183     # N_2 C_R H_
303   3   181 182 184     # N_2 C_R C_R
304   4   183 182 184     # H_ C_R C_R
305   5   182 184 185     # C_R C_R C_R
306   5   182 184 191     # C_R C_R C_R
307   5   185 184 191     # C_R C_R C_R
308   5   184 185 196     # C_R C_R C_R
309   6   184 185 198     # C_R C_R H_
310   6   196 185 198     # C_R C_R H_
311   1   188 187 205     # C_R N_2 N_2
312   2   187 188 189     # N_2 C_R H_
313   3   187 188 190     # N_2 C_R C_R
314   4   189 188 190     # H_ C_R C_R
315   5   188 190 191     # C_R C_R C_R
316   5   188 190 197     # C_R C_R C_R
317   5   191 190 197     # C_R C_R C_R
318   6   184 191 186     # C_R C_R H_
319   5   184 191 190     # C_R C_R C_R
320   4   186 191 190     # H_ C_R C_R
321   1   194 193 283     # C_R N_2 N_2
322   2   193 194 195     # N_2 C_R H_
323   3   193 194 196     # N_2 C_R C_R
324   4   195 194 196     # H_ C_R C_R
325   5   185 196 194     # C_R C_R C_R
326   5   185 196 197     # C_R C_R C_R
327   5   194 196 197     # C_R C_R C_R
328   6   190 197 192     # C_R C_R H_
329   5   190 197 196     # C_R C_R C_R
330   4   192 197 196     # H_ C_R C_R
331   1   200 199 217     # C_R N_2 N_2
332   2   199 200 201     # N_2 C_R H_
333   3   199 200 202     # N_2 C_R C_R
334   4   201 200 202     # H_ C_R C_R
335   5   200 202 203     # C_R C_R C_R
336   5   200 202 209     # C_R C_R C_R
337   5   203 202 209     # C_R C_R C_R
338   5   202 203 214     # C_R C_R C_R
339   6   202 203 216     # C_R C_R H_
340   6   214 203 216     # C_R C_R H_
341   7   187 205 206     # N_2 N_2 C_R
342   2   205 206 207     # N_2 C_R H_
343   3   205 206 208     # N_2 C_R C_R
344   4   207 206 208     # H_ C_R C_R
345   5   206 208 209     # C_R C_R C_R
346   5   206 208 215     # C_R C_R C_R
347   5   209 208 215     # C_R C_R C_R
348   6   202 209 204     # C_R C_R H_
349   5   202 209 208     # C_R C_R C_R
350   4   204 209 208     # H_ C_R C_R
351   1   212 211 265     # C_R N_2 N_2
352   2   211 212 213     # N_2 C_R H_
353   3   211 212 214     # N_2 C_R C_R
354   4   213 212 214     # H_ C_R C_R
355   5   203 214 212     # C_R C_R C_R
356   5   203 214 215     # C_R C_R C_R
357   5   212 214 215     # C_R C_R C_R
358   6   208 215 210     # C_R C_R H_
359   5   208 215 214     # C_R C_R C_R
360   4   210 215 214     # H_ C_R C_R
361   7   199 217 218     # N_2 N_2 C_R
362   2   217 218 219     # N_2 C_R H_
363   3   217 218 220     # N_2 C_R C_R
364   4   219 218 220     # H_ C_R C_R
365   5   218 220 221     # C_R C_R C_R
366   5   218 220 227     # C_R C_R C_R
367   5   221 220 227     # C_R C_R C_R
368   5   220 221 232     # C_R C_R C_R
369   6   220 221 234     # C_R C_R H_
370   6   232 221 234     # C_R C_R H_
371   1   224 223 241     # C_R N_2 N_2
372   2   223 224 225     # N_2 C_R H_
373   3   223 224 226     # N_2 C_R C_R
374   4   225 224 226     # H_ C_R C_R
375   5   224 226 227     # C_R C_R C_R
376   5   224 226 233     # C_R C_R C_R
377   5   227 226 233     # C_R C_R C_R
378   6   220 227 222     # C_R C_R H_
379   5   220 227 226     # C_R C_R C_R
380   4   222 227 226     # H_ C_R C_R
381   7   175 229 230     # N_2 N_2 C_R
382   2   229 230 231     # N_2 C_R H_
383   3   229 230 232     # N_2 C_R C_R
384   4   231 230 232     # H_ C_R C_R
385   5   221 232 230     # C_R C_R C_R
386   5   221 232 233     # C_R C_R C_R
387   5   230 232 233     # C_R C_R C_R
388   6   226 233 228     # C_R C_R H_
389   5   226 233 232     # C_R C_R C_R
390   4   228 233 232     # H_ C_R C_R
391   1   236 235 253     # C_R N_2 N_2
392   2   235 236 237     # N_2 C_R H_
393   3   235 236 238     # N_2 C_R C_R
394   4   237 236 238     # H_ C_R C_R
395   5   236 238 239     # C_R C_R C_R
396   5   236 238 245     # C_R C_R C_R
397   5   239 238 245     # C_R C_R C_R
398   5   238 239 250     # C_R C_R C_R
399   6   238 239 252     # C_R C_R H_
400   6   250 239 252     # C_R C_R H_
401   7   223 241 242     # N_2 N_2 C_R
402   2   241 242 243     # N_2 C_R H_
403   3   241 242 244     # N_2 C_R C_R
404   4   243 242 244     # H_ C_R C_R
405   5   242 244 245     # C_R C_R C_R
406   5   242 244 251     # C_R C_R C_R
407   5   245 244 251     # C_R C_R C_R
408   6   238 245 240     # C_R C_R H_
409   5   238 245 244     # C_R C_R C_R
410   4   240 245 244     # H_ C_R C_R
411   7   157 247 248     # N_2 N_2 C_R
412   2   247 248 249     # N_2 C_R H_
413   3   247 248 250     # N_2 C_R C_R
414   4   249 248 250     # H_ C_R C_R
415   5   239 250 248     # C_R C_R C_R
416   5   239 250 251     # C_R C_R C_R
417   5   248 250 251     # C_R C_R C_R
418   6   244 251 246     # C_R C_R H_
419   5   244 251 250     # C_R C_R C_R
420   4   246 251 250     # H_ C_R C_R
421   7   235 253 254     # N_2 N_2 C_R
422   2   253 254 255     # N_2 C_R H_
423   3   253 254 256     # N_2 C_R C_R
424   4   255 254 256     # H_ C_R C_R
425   5   254 256 257     # C_R C_R C_R
426   5   254 256 263     # C_R C_R C_R
427   5   257 256 263     # C_R C_R C_R
428   5   256 257 268     # C_R C_R C_R
429   6   256 257 270     # C_R C_R H_
430   6   268 257 270     # C_R C_R H_
431   1   260 259 277     # C_R N_2 N_2
432   2   259 260 261     # N_2 C_R H_
433   3   259 260 262     # N_2 C_R C_R
434   4   261 260 262     # H_ C_R C_R
435   5   260 262 263     # C_R C_R C_R
436   5   260 262 269     # C_R C_R C_R
437   5   263 262 269     # C_R C_R C_R
438   6   256 263 258     # C_R C_R H_
439   5   256 263 262     # C_R C_R C_R
440   4   258 263 262     # H_ C_R C_R
441   7   211 265 266     # N_2 N_2 C_R
442   2   265 266 267     # N_2 C_R H_
443   3   265 266 268     # N_2 C_R C_R
444   4   267 266 268     # H_ C_R C_R
445   5   257 268 266     # C_R C_R C_R
446   5   257 268 269     # C_R C_R C_R
447   5   266 268 269     # C_R C_R C_R
448   6   262 269 264     # C_R C_R H_
449   5   262 269 268     # C_R C_R C_R
450   4   264 269 268     # H_ C_R C_R
451   7   145 271 272     # N_2 N_2 C_R
452   2   271 272 273     # N_2 C_R H_
453   3   271 272 274     # N_2 C_R C_R
454   4   273 272 274     # H_ C_R C_R
455   5   272 274 275     # C_R C_R C_R
456   5   272 274 281     # C_R C_R C_R
457   5   275 274 281     # C_R C_R C_R
458   5   274 275 286     # C_R C_R C_R
459   6   274 275 288     # C_R C_R H_
460   6   286 275 288     # C_R C_R H_
461   7   259 277 278     # N_2 N_2 C_R
462   2   277 278 279     # N_2 C_R H_
463   3   277 278 280     # N_2 C_R C_R
464   4   279 278 280     # H_ C_R C_R
465   5   278 280 281     # C_R C_R C_R
466   5   278 280 287     # C_R C_R C_R
467   5   281 280 287     # C_R C_R C_R
468   6   274 281 276     # C_R C_R H_
469   5   274 281 280     # C_R C_R C_R
470   4   276 281 280     # H_ C_R C_R
471   7   193 283 284     # N_2 N_2 C_R
472   2   283 284 285     # N_2 C_R H_
473   3   283 284 286     # N_2 C_R C_R
474   4   285 284 286     # H_ C_R C_R
475   5   275 286 284     # C_R C_R C_R
476   5   275 286 287     # C_R C_R C_R
477   5   284 286 287     # C_R C_R C_R
478   6   280 287 282     # C_R C_R H_
479   5   280 287 286     # C_R C_R C_R
480   4   282 287 286     # H_ C_R C_R
481   1   290 289 415     # C_R N_2 N_2
482   2   289 290 291     # N_2 C_R H_
483   3   289 290 292     # N_2 C_R C_R
484   4   291 290 292     # H_ C_R C_R
485   5   290 292 293     # C_R C_R C_R
486   5   290 292 299     # C_R C_R C_R
487   5   293 292 299     # C_R C_R C_R
488   5   292 293 304     # C_R C_R C_R
489   6   292 293 306     # C_R C_R H_
490   6   304 293 306     # C_R C_R H_
491   1   296 295 313     # C_R N_2 N_2
492   2   295 296 297     # N_2 C_R H_
493   3   295 296 298     # N_2 C_R C_R
494   4   297 296 298     # H_ C_R C_R
495   5   296 298 299     # C_R C_R C_R
496   5   296 298 305     # C_R C_R C_R
497   5   299 298 305     # C_R C_R C_R
498   6   292 299 294     # C_R C_R H_
499   5   292 299 298     # C_R C_R C_R
500   4   294 299 298     # H_ C_R C_R
501   1   302 301 391     # C_R N_2 N_2
502   2   301 302 303     # N_2 C_R H_
503   3   301 302 304     # N_2 C_R C_R
504   4   303 302 304     # H_ C_R C_R
505   5   293 304 302     # C_R C_R C_R
506   5   293 304 305     # C_R C_R C_R
507   5   302 304 305     # C_R C_R C_R
508   6   298 305 300     # C_R C_R H_
509   5   298 305 304     # C_R C_R C_R
510   4   300 305 304     # H_ C_R C_R
511   1   308 307 325     # C_R N_2 N_2
512   2   307 308 309     # N_2 C_R H_
513   3   307 308 310     # N_2 C_R C_R
514   4   309 308 310     # H_ C_R C_R
515   5   308 310 311     # C_R C_R C_R
516   5   308 310 317     # C_R C_R C_R
517   5   311 310 317     # C_R C_R C_R
518   5   310 311 322     # C_R C_R C_R
519   6   310 311 324     # C_R C_R H_
520   6   322 311 324     # C_R C_R H_
521   7   295 313 314     # N_2 N_2 C_R
522   2   313 314 315     # N_2 C_R H_
523   3   313 314 316     # N_2 C_R C_R
524   4   315 314 316     # H_ C_R C_R
525   5   314 316 317     # C_R C_R C_R
526   5   314 316 323     # C_R C_R C_R
527   5   317 316 323     # C_R C_R C_R
528   6   310 317 312     # C_R C_R H_
529   5   310 317 316     # C_R C_R C_R
530   4   312 317 316     # H_ C_R C_R
531   1   320 319 373     # C_R N_2 N_2
532   2   319 320 321     # N_2 C_R H_
533   3   319 320 322     # N_2 C_R C_R
534   4   321 320 322     # H_ C_R C_R
535   5   311 322 320     # C_R C_R C_R
536   5   311 322 323     # C_R C_R C_R
537   5   320 322 323     # C_R C_R C_R
538   6   316 323 318     # C_R C_R H_
539   5   316 323 322     # C_R C_R C_R
540   4   318 323 322     # H_ C_R C_R
541   7   307 325 326     # N_2 N_2 C_R
542   2   325 326 327     # N_2 C_R H_
543   3   325 326 328     # N_2 C_R C_R
544   4   327 326 328     # H_ C_R C_R
545   5   326 328 329     # C_R C_R C_R
546   5   326 328 335     # C_R C_R C_R
547   5   329 328 335     # C_R C_R C_R
548   5   328 329 340     # C_R C_R C_R
549   6   328 329 342     # C_R C_R H_
550   6   340 329 342     # C_R C_R H_
551   1   332 331 349     # C_R N_2 N_2
552   2   331 332 333     # N_2 C_R H_
553   3   331 332 334     # N_2 C_R C_R
554   4   333 332 334     # H_ C_R C_R
555   5   332 334 335     # C_R C_R C_R
556   5   332 334 341     # C_R C_R C_R
557   5   335 334 341     # C_R C_R C_R
558   6   328 335 330     # C_R C_R H_
559   5   328 335 334     # C_R C_R C_R
560   4   330 335 334     # H_ C_R C_R
561   1   338 337 427     # C_R N_2 N_2
562   2   337 338 339     # N_2 C_R H_
563   3   337 338 340     # N_2 C_R C_R
564   4   339 338 340     # H_ C_R C_R
565   5   329 340 338     # C_R C_R C_R
566   5   329 340 341     # C_R C_R C_R
567   5   338 340 341     # C_R C_R C_R
568   6   334 341 336     # C_R C_R H_
569   5   334 341 340     # C_R C_R C_R
570   4   336 341 340     # H_ C_R C_R
571   1   344 343 361     # C_R N_2 N_2
572   2   343 344 345     # N_2 C_R H_
573   3   343 344 346     # N_2 C_R C_R
574   4   345 344 346     # H_ C_R C_R
575   5   344 346 347     # C_R C_R C_R
576   5   344 346 353     # C_R C_R C_R
577   5   347 346 353     # C_R C_R C_R
578   5   346 347 358     # C_R C_R C_R
579   6   346 347 360     # C_R C_R H_
580   6   358 347 360     # C_R C_R H_
581   7   331 349 350     # N_2 N_2 C_R
582   2   349 350 351     # N_2 C_R H_
583   3   349 350 352     # N_2 C_R C_R
584   4   351 350 352     # H_ C_R C_R
585   5   350 352 353     # C_R C_R C_R
586   5   350 352 359     # C_R C_R C_R
587   5   353 352 359     # C_R C_R C_R
588   6   346 353 348     # C_R C_R H_
589   5   346 353 352     # C_R C_R C_R
590   4   348 353 352     # H_ C_R C_R
591   1   356 355 409     # C_R N_2 N_2
592   2   355 356 357     # N_2 C_R H_
593   3   355 356 358     # N_2 C_R C_R
594   4   357 356 358     # H_ C_R C_R
595   5   347 358 356     # C_R C_R C_R
596   5   347 358 359     # C_R C_R C_R
597   5   356 358 359     # C_R C_R C_R
598   6   352 359 354     # C_R C_R H_
599   5   352 359 358     # C_R C_R C_R
600   4   354 359 358     # H_ C_R C_R
601   7   343 361 362     # N_2 N_2 C_R
602   2   361 362 363     # N_2 C_R H_
603   3   361 362 364     # N_2 C_R C_R
604   4   363 362 364     # H_ C_R C_R
605   5   362 364 365     # C_R C_R C_R
606   5   362 364 371     # C_R C_R C_R
607   5   365 364 371     # C_R C_R C_R
608   5   364 365 376     # C_R C_R C_R
609   6   364 365 378     # C_R C_R H_
610   6   376 365 378     # C_R C_R H_
611   1   368 367 385     # C_R N_2 N_2
612   2   367 368 369     # N_2 C_R H_
613   3   367 368 370     # N_2 C_R C_R
614   4   369 368 370     # H_ C_R C_R
615   5   368 370 371     # C_R C_R C_R
616   5   368 370 377     # C_R C_R C_R
617   5   371 370 377     # C_R C_R C_R
618   6   364 371 366     # C_R C_R H_
619   5   364 371 370     # C_R C_R C_R
620   4   366 371 370     # H_ C_R C_R
621   7   319 373 374     # N_2 N_2 C_R
622   2   373 374 375     # N_2 C_R H_
623   3   373 374 376     # N_2 C_R C_R
624   4   375 374 376     # H_ C_R C_R
625   5   365 376 374     # C_R C_R C_R
626   5   365 376 377     # C_R C_R C_R
627   5   374 376 377     # C_R C_R C_R
628   6   370 377 372     # C_R C_R H_
629   5   370 377 376     # C_R C_R C_R
630   4   372 377 376     # H_ C_R C_R
631   1   380 379 397     # C_R N_2 N_2
632   2   379 380 381     # N_2 C_R H_
633   3   379 380 382     # N_2 C_R C_R
634   4   381 380 382     # H_ C_R C_R
635   5   380 382 383     # C_R C_R C_R
636   5   380 382 389     # C_R C_R C_R
637   5   383 382 389     # C_R C_R C_R
638   5   382 383 394     # C_R C_R C_R
639   6   382 383 396     # C_R C_R H_
640   6   394 383 396     # C_R C_R H_
641   7   367 385 386     # N_2 N_2 C_R
642   2   385 386 387     # N_2 C_R H_
643   3   385 386 388     # N_2 C_R C_R
644   4   387 386 388     # H_ C_R C_R
645   5   386 388 389     # C_R C_R C_R
646   5   386 388 395     # C_R C_R C_R
647   5   389 388 395     # C_R C_R C_R
648   6   382 389 384     # C_R C_R H_
649   5   382 389 388     # C_R C_R C_R
650   4   384 389 388     # H_ C_R C_R
651   7   301 391 392     # N_2 N_2 C_R
652   2   391 392 393     # N_2 C_R H_
653   3   391 392 394     # N_2 C_R C_R
654   4   393 392 394     # H_ C_R C_R
655   5   383 394 392     # C_R C_R C_R
656   5   383 394 395     # C_R C_R C_R
657   5   392 394 395     # C_R C_R C_R
658   6   388 395 390     # C_R C_R H_
659   5   388 395 394     # C_R C_R C_R
660   4   390 395 394     # H_ C_R C_R
661   7   379 397 398     # N_2 N_2 C_R
662   2   397 398 399     # N_2 C_R H_
663   3   397 398 400     # N_2 C_R C_R
664   4   399 398 400     # H_ C_R C_R
665   5   398 400 401     # C_R C_R C_R
666   5   398 400 407     # C_R C_R C_R
667   5   401 400 407     # C_R C_R C_R
668   5   400 401 412     # C_R C_R C_R
669   6   400 401 414     # C_R C_R H_
670   6   412 401 414     # C_R C_R H_
671   1   404 403 421     # C_R N_2 N_2
672   2   403 404 405     # N_2 C_R H_
673   3   403 404 406     # N_2 C_R C_R
674   4   405 404 406     # H_ C_R C_R
675   5   404 406 407     # C_R C_R C_R
676   5   404 406 413     # C_R C_R C_R
677   5   407 406 413     # C_R C_R C_R
678   6   400 407 402     # C_R C_R H_
679   5   400 407 406     # C_R C_R C_R
680   4   402 407 406     # H_ C_R C_R
681   7   355 409 410     # N_2 N_2 C_R
682   2   409 410 411     # N_2 C_R H_
683   3   409 410 412     # N_2 C_R C_R
684   4   411 410 412     # H_ C_R C_R
685   5   401 412 410     # C_R C_R C_R
686   5   401 412 413     # C_R C_R C_R
687   5   410 412 413     # C_R C_R C_R
688   6   406 413 408     # C_R C_R H_
689   5   406 413 412     # C_R C_R C_R
690   4   408 413 412     # H_ C_R C_R
691   7   289 415 416     # N_2 N_2 C_R
692   2   415 416 417     # N_2 C_R H_
693   3   415 416 418     # N_2 C_R C_R
694   4   417 416 418     # H_ C_R C_R
695   5   416 418 419     # C_R C_R C_R
696   5   416 418 425     # C_R C_R C_R
697   5   419 418 425     # C_R C_R C_R
698   5   418 419 430     # C_R C_R C_R
699   6   418 419 432     # C_R C_R H_
700   6   430 419 432     # C_R C_R H_
701   7   403 421 422     # N_2 N_2 C_R
702   2   421 422 423     # N_2 C_R H_
703   3   421 422 424     # N_2 C_R C_R
704   4   423 422 424     # H_ C_R C_R
705   5   422 424 425     # C_R C_R C_R
706   5   422 424 431     # C_R C_R C_R
707   5   425 424 431     # C_R C_R C_R
708   6   418 425 420     # C_R C_R H_
709   5   418 425 424     # C_R C_R C_R
710   4   420 425 424     # H_ C_R C_R
711   7   337 427 428     # N_2 N_2 C_R
712   2   427 428 429     # N_2 C_R H_
713   3   427 428 430     # N_2 C_R C_R
714   4   429 428 430     # H_ C_R C_R
715   5   419 430 428     # C_R C_R C_R
716   5   419 430 431     # C_R C_R C_R
717   5   428 430 431     # C_R C_R C_R
718   6   424 431 426     # C_R C_R H_
719   5   424 431 430     # C_R C_R C_R
720   4   426 431 430     # H_ C_R C_R
721   1   434 433 559     # C_R N_2 N_2
722   2   433 434 435     # N_2 C_R H_
723   3   433 434 436     # N_2 C_R C_R
724   4   435 434 436     # H_ C_R C_R
725   5   434 436 437     # C_R C_R C_R
726   5   434 436 443     # C_R C_R C_R
727   5   437 436 443     # C_R C_R C_R
728   5   436 437 448     # C_R C_R C_R
729   6   436 437 450     # C_R C_R H_
730   6   448 437 450     # C_R C_R H_
731   1   440 439 457     # C_R N_2 N_2
732   2   439 440 441     # N_2 C_R H_
733   3   439 440 442     # N_2 C_R C_R
734   4   441 440 442     # H_ C_R C_R
735   5   440 442 443     # C_R C_R C_R
736   5   440 442 449     # C_R C_R C_R
737   5   443 442 449     # C_R C_R C_R
738   6   436 443 438     # C_R C_R H_
739   5   436 443 442     # C_R C_R C_R
740   4   438 443 442     # H_ C_R C_R
741   1   446 445 535     # C_R N_2 N_2
742   2   445 446 447     # N_2 C_R H_
743   3   445 446 448     # N_2 C_R C_R
744   4   447 446 448     # H_ C_R C_R
745   5   437 448 446     # C_R C_R C_R
746   5   437 448 449     # C_R C_R C_R
747   5   446 448 449     # C_R C_R C_R
748   6   442 449 444     # C_R C_R H_
749   5   442 449 448     # C_R C_R C_R
750   4   444 449 448     # H_ C_R C_R
751   1   452 451 469     # C_R N_2 N_2
752   2   451 452 453     # N_2 C_R H_
753   3   451 452 454     # N_2 C_R C_R
754   4   453 452 454     # H_ C_R C_R
755   5   452 454 455     # C_R C_R C_R
756   5   452 454 461     # C_R C_R C_R
757   5   455 454 461     # C_R C_R C_R
758   5   454 455 466     # C_R C_R C_R
759   6   454 455 468     # C_R C_R H_
760   6   466 455 468     # C_R C_R H_
761   7   439 457 458     # N_2 N_2 C_R
762   2   457 458 459     # N_2 C_R H_
763   3   457 458 460     # N_2 C_R C_R
764   4   459 458 460     # H_ C_R C_R
765   5   458 460 461     # C_R C_R C_R
766   5   458 460 467     # C_R C_R C_R
767   5   461 460 467     # C_R C_R C_R
768   6   454 461 456     # C_R C_R H_
769   5   454 461 460     # C_R C_R C_R
770   4   456 461 460     # H_ C_R C_R
771   1   464 463 517     # C_R N_2 N_2
772   2   463 464 465     # N_2 C_R H_
773   3   463 464 466     # N_2 C_R C_R
774   4   465 464 466     # H_ C_R C_R
775   5   455 466 464     # C_R C_R C_R
776   5   455 466 467     # C_R C_R C_R
777   5   464 466 467     # C_R C_R C_R
778   6   460 467 462     # C_R C_R H_
779   5   460 467 466     # C_R C_R C_R
780   4   462 467 466     # H_ C_R C_R
781   7   451 469 470     # N_2 N_2 C_R
782   2   469 470 471     # N_2 C_R H_
783   3   469 470 472     # N_2 C_R C_R
784   4   471 470 472     # H_ C_R C_R
785   5   470 472 473     # C_R C_R C_R
786   5   470 472 479     # C_R C_R C_R
787   5   473 472 479     # C_R C_R C_R
788   5   472 473 484     # C_R C_R C_R
789   6   472 473 486     # C_R C_R H_
790   6   484 473 486     # C_R C_R H_
791   1   476 475 493     # C_R N_2 N_2
792   2   475 476 477     # N_2 C_R H_
793   3   475 476 478     # N_2 C_R C_R
794   4   477 476 478     # H_ C_R C_R
795   5   476 478 479     # C_R C_R C_R
796   5   476 478 485     # C_R C_R C_R
797   5   479 478 485     # C_R C_R C_R
798   6   472 479 474     # C_R C_R H_
799   5   472 479 478     # C_R C_R C_R
800   4   474 479 478     # H_ C_R C_R
801   1   482 481 571     # C_R N_2 N_2
802   2   481 482 483     # N_2 C_R H_
803   3   481 482 484     # N_2 C_R C_R
804   4   483 482 484     # H_ C_R C_R
805   5   473 484 482     # C_R C_R C_R
806   5   473 484 485     # C_R C_R C_R
807   5   482 484 485     # C_R C_R C_R
808   6   478 485 480     # C_R C_R H_
809   5   478 485 484     # C_R C_R C_R
810   4   480 485 484     # H_ C_R C_R
811   1   488 487 505     # C_R N_2 N_2
812   2   487 488 489     # N_2 C_R H_
813   3   487 488 490     # N_2 C_R C_R
814   4   489 488 490     # H_ C_R C_R
815   5   488 490 491     # C_R C_R C_R
816   5   488 490 497     # C_R C_R C_R
817   5   491 490 497     # C_R C_R C_R
818   5   490 491 502     # C_R C_R C_R
819   6   490 491 504     # C_R C_R H_
820   6   502 491 504     # C_R C_R H_
821   7   475 493 494     # N_2 N_2 C_R
822   2   493 494 495     # N_2 C_R H_
823   3   493 494 496     # N_2 C_R C_R
824   4   495 494 496     # H_ C_R C_R
825   5   494 496 497     # C_R C_R C_R
826   5   494 496 503     # C_R C_R C_R
827   5   497 496 503     # C_R C_R C_R
828   6   490 497 492     # C_R C_R H_
829   5   490 497 496     # C_R C_R C_R
830   4   492 497 496     # H_ C_R C_R
831   1   500 499 553     # C_R N_2 N_2
832   2   499 500 501     # N_2 C_R H_
833   3   499 500 502     # N_2 C_R C_R
834   4   501 500 502     # H_ C_R C_R
835   5   491 502 500     # C_R C_R C_R
836   5   491 502 503     # C_R C_R C_R
837   5   500 502 503     # C_R C_R C_R
838   6   496 503 498     # C_R C_R H_
839   5   496 503 502     # C_R C_R C_R
840   4   498 503 502     # H_ C_R C_R
841   7   487 505 506     # N_2 N_2 C_R
842   2   505 506 507     # N_2 C_R H_
843   3   505 506 508     # N_2 C_R C_R
844   4   507 506 508     # H_ C_R C_R
845   5   506 508 509     # C_R C_R C_R
846   5   506 508 515     # C_R C_R C_R
847   5   509 508 515     # C_R C_R C_R
848   5   508 509 520     # C_R C_R C_R
849   6   508 509 522     # C_R C_R H_
850   6   520 509 522     # C_R C_R H_
851   1   512 511 529     # C_R N_2 N_2
852   2   511 512 513     # N_2 C_R H_
853   3   511 512 514     # N_2 C_R C_R
854   4   513 512 514     # H_ C_R C_R
855   5   512 514 515     # C_R C_R C_R
856   5   512 514 521     # C_R C_R C_R
857   5   515 514 521     # C_R C_R C_R
858   6   508 515 510     # C_R C_R H_
859   5   508 515 514     # C_R C_R C_R
860   4   510 515 514     # H_ C_R C_R
861   7   463 517 518     # N_2 N_2 C_R
862   2   517 518 519     # N_2 C_R H_
863   3   517 518 520     # N_2 C_R C_R
864   4   519 518 520     # H_ C_R C_R
865   5   509 520 518     # C_R C_R C_R
866   5   509 520 521     # C_R C_R C_R
867   5   518 520 521     # C_R C_R C_R
868   6   514 521 516     # C_R C_R H_
869   5   514 521 520     # C_R C_R C_R
870   4   516 521 520     # H_ C_R C_R
871   1   524 523 541     # C_R N_2 N_2
872   2   523 524 525     # N_2 C_R H_
873   3   523 524 526     # N_2 C_R C_R
874   4   525 524 526     # H_ C_R C_R
875   5   524 526 527     # C_R C_R C_R
876   5   524 526 533     # C_R C_R C_R
877   5   527 526 533     # C_R C_R C_R
878   5   526 527 538     # C_R C_R C_R
879   6   526 527 540     # C_R C_R H_
880   6   538 527 540     # C_R C_R H_
881   7   511 529 530     # N_2 N_2 C_R
882   2   529 530 531     # N_2 C_R H_
883   3   529 530 532     # N_2 C_R C_R
884   4   531 530 532     # H_ C_R C_R
885   5   530 532 533     # C_R C_R C_R
886   5   530 532 539     # C_R C_R C_R
887   5   533 532 539     # C_R C_R C_R
888   6   526 533 528     # C_R C_R H_
889   5   526 533 532     # C_R C_R C_R
890   4   528 533 532     # H_ C_R C_R
891   7   445 535 536     # N_2 N_2 C_R
892   2   535 536 537     # N_2 C_R H_
893   3   535 536 538     # N_2 C_R C_R
894   4   537 536 538     # H_ C_R C_R
895   5   527 538 536     # C_R C_R C_R
896   5   527 538 539     # C_R C_R C_R
897   5   536 538 539     # C_R C_R C_R
898   6   532 539 534     # C_R C_R H_
899   5   532 539 538     # C_R C_R C_R
900   4   534 539 538     # H_ C_R C_R
901   7   523 541 542     # N_2 N_2 C_R
902   2   541 542 543     # N_2 C_R H_
903   3   541 542 544     # N_2 C_R C_R
904   4   543 542 544     # H_ C_R C_R
905   5   542 544 545     # C_R C_R C_R
906   5   542 544 551     # C_R C_R C_R
907   5   545 544 551     # C_R C_R C_R
908   5   544 545 556     # C_R C_R C_R
909   6   544 545 558     # C_R C_R H_
910   6   556 545 558     # C_R C_R H_
911   1   548 547 565     # C_R N_2 N_2
912   2   547 548 549     # N_2 C_R H_
913   3   547 548 550     # N_2 C_R C_R
914   4   549 548 550     # H_ C_R C_R
915   5   548 550 551     # C_R C_R C_R
916   5   548 550 557     # C_R C_R C_R
917   5   551 550 557     # C_R C_R C_R
918   6   544 551 546     # C_R C_R H_
919   5   544 551 550     # C_R C_R C_R
920   4   546 551 550     # H_ C_R C_R
921   7   499 553 554     # N_2 N_2 C_R
922   2   553 554 555     # N_2 C_R H_
923   3   553 554 556     # N_2 C_R C_R
924   4   555 554 556     # H_ C_R C_R
925   5   545 556 554     # C_R C_R C_R
926   5   545 556 557     # C_R C_R C_R
927   5   554 556 557     # C_R C_R C_R
928   6   550 557 552     # C_R C_R H_
929   5   550 557 556     # C_R C_R C_R
930   4   552 557 556     # H_ C_R C_R
931   7   433 559 560     # N_2 N_2 C_R
932   2   559 560 561     # N_2 C_R H_
933   3   559 560 562     # N_2 C_R C_R
934   4   561 560 562     # H_ C_R C_R
935   5   560 562 563     # C_R C_R C_R
936   5   560 562 569     # C_R C_R C_R
937   5   563 562 569     # C_R C_R C_R
938   5   562 563 574     # C_R C_R C_R
939   6   562 563 576     # C_R C_R H_
940   6   574 563 576     # C_R C_R H_
941   7   547 565 566     # N_2 N_2 C_R
942   2   565 566 567     # N_2 C_R H_
943   3   565 566 568     # N_2 C_R C_R
944   4   567 566 568     # H_ C_R C_R
945   5   566 568 569     # C_R C_R C_R
946   5   566 568 575     # C_R C_R C_R
947   5   569 568 575     # C_R C_R C_R
948   6   562 569 564     # C_R C_R H_
949   5   562 569 568     # C_R C_R C_R
950   4   564 569 568     # H_ C_R C_R
951   7   481 571 572     # N_2 N_2 C_R
952   2   571 572 573     # N_2 C_R H_
953   3   571 572 574     # N_2 C_R C_R
954   4   573 572 574     # H_ C_R C_R
955   5   563 574 572     # C_R C_R C_R
956   5   563 574 575     # C_R C_R C_R
957   5   572 574 575     # C_R C_R C_R
958   6   568 575 570     # C_R C_R H_
959   5   568 575 574     # C_R C_R C_R
960   4   570 575 574     # H_ C_R C_R
961   1   578 577 703     # C_R N_2 N_2
962   2   577 578 579     # N_2 C_R H_
963   3   577 578 580     # N_2 C_R C_R
964   4   579 578 580     # H_ C_R C_R
965   5   578 580 581     # C_R C_R C_R
966   5   578 580 587     # C_R C_R C_R
967   5   581 580 587     # C_R C_R C_R
968   5   580 581 592     # C_R C_R C_R
969   6   580 581 594     # C_R C_R H_
970   6   592 581 594     # C_R C_R H_
971   1   584 583 601     # C_R N_2 N_2
972   2   583 584 585     # N_2 C_R H_
973   3   583 584 586     # N_2 C_R C_R
974   4   585 584 586     # H_ C_R C_R
975   5   584 586 587     # C_R C_R C_R
976   5   584 586 593     # C_R C_R C_R
977   5   587 586 593     # C_R C_R C_R
978   6   580 587 582     # C_R C_R H_
979   5   580 587 586     # C_R C_R C_R
980   4   582 587 586     # H_ C_R C_R
981   1   590 589 679     # C_R N_2 N_2
982   2   589 590 591     # N_2 C_R H_
983   3   589 590 592     # N_2 C_R C_R
984   4   591 590 592     # H_ C_R C_R
985   5   581 592 590     # C_R C_R C_R
986   5   581 592 593     # C_R C_R C_R
987   5   590 592 593     # C_R C_R C_R
988   6   586 593 588     # C_R C_R H_
989   5   586 593 592     # C_R C_R C_R
990   4   588 593 592     # H_ C_R C_R
991   1   596 595 613     # C_R N_2 N_2
992   2   595 596 597     # N_2 C_R H_
993   3   595 596 598     # N_2 C_R C_R
994   4   597 596 598     # H_ C_R C_R
995   5   596 598 599     # C_R C_R C_R
996   5   596 598 605     # C_R C_R C_R
997   5   599 598 605     # C_R C_R C_R
998   5   598 599 610     # C_R C_R C_R
999   6   598 599 612     # C_R C_R H_
1000   6   610 599 612     # C_R C_R H_
1001   7   583 601 602     # N_2 N_2 C_R
1002   2   601 602 603     # N_2 C_R H_
1003   3   601 602 604     # N_2 C_R C_R
1004   4   603 602 604     # H_ C_R C_R
1005   5   602 604 605     # C_R C_R C_R
1006   5   602 604 611     # C_R C_R C_R
1007   5   605 604 611     # C_R C_R C_R
1008   6   598 605 600     # C_R C_R H_
1009   5   598 605 604     # C_R C_R C_R
1010   4   600 605 604     # H_ C_R C_R
1011   1   608 607 661     # C_R N_2 N_2
1012   2   607 608 609     # N_2 C_R H_
1013   3   607 608 610     # N_2 C_R C_R
1014   4   609 608 610     # H_ C_R C_R
1015   5   599 610 608     # C_R C_R C_R
1016   5   599 610 611     # C_R C_R C_R
1017   5   608 610 611     # C_R C_R C_R
1018   6   604 611 606     # C_R C_R H_
1019   5   604 611 610     # C_R C_R C_R
1020   4   606 611 610     # H_ C_R C_R
1021   7   595 613 614     # N_2 N_2 C_R
1022   2   613 614 615     # N_2 C_R H_
1023   3   613 614 616     # N_2 C_R C_R
1024   4   615 614 616     # H_ C_R C_R
1025   5   614 616 617     # C_R C_R C_R
1026   5   614 616 623     # C_R C_R C_R
1027   5   617 616 623     # C_R C_R C_R
1028   5   616 617 628     # C_R C_R C_R
1029   6   616 617 630     # C_R C_R H_
1030   6   628 617 630     # C_R C_R H_
1031   1   620 619 637     # C_R N_2 N_2
1032   2   619 620 621     # N_2 C_R H_
1033   3   619 620 622     # N_2 C_R C_R
1034   4   621 620 622     # H_ C_R C_R
1035   5   620 622 623     # C_R C_R C_R
1036   5   620 622 629     # C_R C_R C_R
1037   5   623 622 629     # C_R C_R C_R
1038   6   616 623 618     # C_R C_R H_
1039   5   616 623 622     # C_R C_R C_R
1040   4   618 623 622     # H_ C_R C_R
1041   1   626 625 715     # C_R N_2 N_2
1042   2   625 626 627     # N_2 C_R H_
1043   3   625 626 628     # N_2 C_R C_R
1044   4   627 626 628     # H_ C_R C_R
1045   5   617 628 626     # C_R C_R C_R
1046   5   617 628 629     # C_R C_R C_R
1047   5   626 628 629     # C_R C_R C_R
1048   6   622 629 624     # C_R C_R H_
1049   5   622 629 628     # C_R C_R C_R
1050   4   624 629 628     # H_ C_R C_R
1051   1   632 631 649     # C_R N_2 N_2
1052   2   631 632 633     # N_2 C_R H_
1053   3   631 632 634     # N_2 C_R C_R
1054   4   633 632 634     # H_ C_R C_R
1055   5   632 634 635     # C_R C_R C_R
1056   5   632 634 641     # C_R C_R C_R
1057   5   635 634 641     # C_R C_R C_R
1058   5   634 635 646     # C_R C_R C_R
1059   6   634 635 648     # C_R C_R H_
1060   6   646 635 648     # C_R C_R H_
1061   7   619 637 638     # N_2 N_2 C_R
1062   2   637 638 639     # N_2 C_R H_
1063   3   637 638 640     # N_2 C_R C_R
1064   4   639 638 640     # H_ C_R C_R
1065   5   638 640 641     # C_R C_R C_R
1066   5   638 640 647     # C_R C_R C_R
1067   5   641 640 647     # C_R C_R C_R
1068   6   634 641 636     # C_R C_R H_
1069   5   634 641 640     # C_R C_R C_R
1070   4   636 641 640     # H_ C_R C_R
1071   1   644 643 697     # C_R N_2 N_2
1072   2   643 644 645     # N_2 C_R H_
1073   3   643 644 646     # N_2 C_R C_R
1074   4   645 644 646     # H_ C_R C_R
1075   5   635 646 644     # C_R C_R C_R
1076   5   635 646 647     # C_R C_R C_R
1077   5   644 646 647     # C_R C_R C_R
1078   6   640 647 642     # C_R C_R H_
1079   5   640 647 646     # C_R C_R C_R
1080   4   642 647 646     # H_ C_R C_R
1081   7   631 649 650     # N_2 N_2 C_R
1082   2   649 650 651     # N_2 C_R H_
1083   3   649 650 652     # N_2 C_R C_R
1084   4   651 650 652     # H_ C_R C_R
1085   5   650 652 653     # C_R C_R C_R
1086   5   650 652 659     # C_R C_R C_R
1087   5   653 652 659     # C_R C_R C_R
1088   5   652 653 664     # C_R C_R C_R
1089   6   652 653 666     # C_R C_R H_
1090   6   664 653 666     # C_R C_R H_
1091   1   656 655 673     # C_R N_2 N_2
1092   2   655 656 657     # N_2 C_R H_
1093   3   655 656 658     # N_2 C_R C_R
1094   4   657 656 658     # H_ C_R C_R
1095   5   656 658 659     # C_R C_R C_R
1096   5   656 658 665     # C_R C_R C_R
1097   5   659 658 665     # C_R C_R C_R
1098   6   652 659 654     # C_R C_R H_
1099   5   652 659 658     # C_R C_R C_R
1100   4   654 659 658     # H_ C_R C_R
1101   7   607 661 662     # N_2 N_2 C_R
1102   2   661 662 663     # N_2 C_R H_
1103   3   661 662 664     # N_2 C_R C_R
1104   4   663 662 664     # H_ C_R C_R
1105   5   653 664 662     # C_R C_R C_R
1106   5   653 664 665     # C_R C_R C_R
1107   5   662 664 665     # C_R C_R C_R
1108   6   658 665 660     # C_R C_R H_
1109   5   658 665 664     # C_R C_R C_R
1110   4   660 665 664     # H_ C_R C_R
1111   1   668 667 685     # C_R N_2 N_2
1112   2   667 668 669     # N_2 C_R H_
1113   3   667 668 670     # N_2 C_R C_R
1114   4   669 668 670     # H_ C_R C_R
1115   5   668 670 671     # C_R C_R C_R
1116   5   668 670 677     # C_R C_R C_R
1117   5   671 670 677     # C_R C_R C_R
1118   5   670 671 682     # C_R C_R C_R
1119   6   670 671 684     # C_R C_R H_
1120   6   682 671 684     # C_R C_R H_
1121   7   655 673 674     # N_2 N_2 C_R
1122   2   673 674 675     # N_2 C_R H_
1123   3   673 674 676     # N_2 C_R C_R
1124   4   675 674 676     # H_ C_R C_R
1125   5   674 676 677     # C_R C_R C_R
1126   5   674 676 683     # C_R C_R C_R
1127   5   677 676 683     # C_R C_R C_R
1128   6   670 677 672     # C_R C_R H_
1129   5   670 677 676     # C_R C_R C_R
1130   4   672 677 676     # H_ C_R C_R
1131   7   589 679 680     # N_2 N_2 C_R
1132   2   679 680 681     # N_2 C_R H_
1133   3   679 680 682     # N_2 C_R C_R
1134   4   681 680 682     # H_ C_R C_R
1135   5   671 682 680     # C_R C_R C_R
1136   5   671 682 683     # C_R C_R C_R
1137   5   680 682 683     # C_R C_R C_R
1138   6   676 683 678     # C_R C_R H_
1139   5   676 683 682     # C_R C_R C_R
1140   4   678 683 682     # H_ C_R C_R
1141   7   667 685 686     # N_2 N_2 C_R
1142   2   685 686 687     # N_2 C_R H_
1143   3   685 686 688     # N_2 C_R C_R
1144   4   687 686 688     # H_ C_R C_R
1145   5   686 688 689     # C_R C_R C_R
1146   5   686 688 695     # C_R C_R C_R
1147   5   689 688 695     # C_R C_R C_R
1148   5   688 689 700     # C_R C_R C_R
1149   6   688 689 702     # C_R C_R H_
1150   6   700 689 702     # C_R C_R H_
1151   1   692 691 709     # C_R N_2 N_2
1152   2   691 692 693     # N_2 C_R H_
1153   3   691 692 694     # N_2 C_R C_R
1154   4   693 692 694     # H_ C_R C_R
1155   5   692 694 695     # C_R C_R C_R
1156   5   692 694 701     # C_R C_R C_R
1157   5   695 694 701     # C_R C_R C_R
1158   6   688 695 690     # C_R C_R H_
1159   5   688 695 694     # C_R C_R C_R
1160   4   690 695 694     # H_ C_R C_R
1161   7   643 697 698     # N_2 N_2 C_R
1162   2   697 698 699     # N_2 C_R H_
1163   3   697 698 700     # N_2 C_R C_R
1164   4   699 698 700     # H_ C_R C_R
1165   5   689 700 698     # C_R C_R C_R
1166   5   689 700 701     # C_R C_R C_R
1167   5   698 700 701     # C_R C_R C_R
1168   6   694 701 696     # C_R C_R H_
1169   5   694 701 700     # C_R C_R C_R
1170   4   696 701 700     # H_ C_R C_R
1171   7   577 703 704     # N_2 N_2 C_R
1172   2   703 704 705     # N_2 C_R H_
1173   3   703 704 706     # N_2 C_R C_R
1174   4   705 704 706     # H_ C_R C_R
1175   5   704 706 707     # C_R C_R C_R
1176   5   704 706 713     # C_R C_R C_R
1177   5   707 706 713     # C_R C_R C_R
1178   5   706 707 718     # C_R C_R C_R
1179   6   706 707 720     # C_R C_R H_
1180   6   718 707 720     # C_R C_R H_
1181   7   691 709 710     # N_2 N_2 C_R
1182   2   709 710 711     # N_2 C_R H_
1183   3   709 710 712     # N_2 C_R C_R
1184   4   711 710 712     # H_ C_R C_R
1185   5   710 712 713     # C_R C_R C_R
1186   5   710 712 719     # C_R C_R C_R
1187   5   713 712 719     # C_R C_R C_R
1188   6   706 713 708     # C_R C_R H_
1189   5   706 713 712     # C_R C_R C_R
1190   4   708 713 712     # H_ C_R C_R
1191   7   625 715 716     # N_2 N_2 C_R
1192   2   715 716 717     # N_2 C_R H_
1193   3   715 716 718     # N_2 C_R C_R
1194   4   717 716 718     # H_ C_R C_R
1195   5   707 718 716     # C_R C_R C_R
1196   5   707 718 719     # C_R C_R C_R
1197   5   716 718 719     # C_R C_R C_R
1198   6   712 719 714     # C_R C_R H_
1199   5   712 719 718     # C_R C_R C_R
1200   4   714 719 718     # H_ C_R C_R
1201	8	722	721	723
1202	8	725	724	726
1203	8	728	727	729
1204	8	731	730	732
1205	8	734	733	735
1206	8	737	736	738
1207	8	740	739	741
1208	8	743	742	744
1209	8	746	745	747
1210	8	749	748	750
1211	8	752	751	753
1212	8	755	754	756
1213	8	758	757	759
1214	8	761	760	762
1215	8	764	763	765
1216	8	767	766	768
1217	8	770	769	771
1218	8	773	772	774
1219	8	776	775	777
1220	8	779	778	780
1221	8	782	781	783
1222	8	785	784	786
1223	8	788	787	789
1224	8	791	790	792
1225	8	794	793	795
1226	8	797	796	798
1227	8	800	799	801
1228	8	803	802	804
1229	8	806	805	807
1230	8	809	808	810
1231	8	812	811	813
1232	8	815	814	816
1233	8	818	817	819
1234	8	821	820	822
1235	8	824	823	825
1236	8	827	826	828
1237	8	830	829	831
1238	8	833	832	834
1239	8	836	835	837
1240	8	839	838	840
1241	8	842	841	843
1242	8	845	844	846
1243	8	848	847	849
1244	8	851	850	852
1245	8	854	853	855
1246	8	857	856	858
1247	8	860	859	861
1248	8	863	862	864
1249	8	866	865	867
1250	8	869	868	870
1251	8	872	871	873
1252	8	875	874	876
1253	8	878	877	879
1254	8	881	880	882
1255	8	884	883	885
1256	8	887	886	888
1257	8	890	889	891
1258	8	893	892	894
1259	8	896	895	897
1260	8	899	898	900
1261	8	902	901	903
1262	8	905	904	906
1263	8	908	907	909
1264	8	911	910	912
1265	8	914	913	915
1266	8	917	916	918
1267	8	920	919	921
1268	8	923	922	924
1269	8	926	925	927
1270	8	929	928	930
1271	8	932	931	933
1272	8	935	934	936
1273	8	938	937	939
1274	8	941	940	942
1275	8	944	943	945
1276	8	947	946	948
1277	8	950	949	951
1278	8	953	952	954
1279	8	956	955	957
1280	8	959	958	960
1281	8	962	961	963
1282	8	965	964	966
1283	8	968	967	969
1284	8	971	970	972
1285	8	974	973	975
1286	8	977	976	978
1287	8	980	979	981
1288	8	983	982	984
1289	8	986	985	987
1290	8	989	988	990
1291	8	992	991	993
1292	8	995	994	996
1293	8	998	997	999
1294	8	1001	1000	1002
1295	8	1004	1003	1005
1296	8	1007	1006	1008
1297	8	1010	1009	1011
1298	8	1013	1012	1014
1299	8	1016	1015	1017
1300	8	1019	1018	1020
1301	8	1022	1021	1023
1302	8	1025	1024	1026
1303	8	1028	1027	1029
1304	8	1031	1030	1032
1305	8	1034	1033	1035
1306	8	1037	1036	1038
1307	8	1040	1039	1041
1308	8	1043	1042	1044
1309	8	1046	1045	1047
1310	8	1049	1048	1050
1311	8	1052	1051	1053
1312	8	1055	1054	1056
1313	8	1058	1057	1059
1314	8	1061	1060	1062
1315	8	1064	1063	1065
1316	8	1067	1066	1068
1317	8	1070	1069	1071
1318	8	1073	1072	1074
1319	8	1076	1075	1077
1320	8	1079	1078	1080
1321	8	1082	1081	1083
1322	8	1085	1084	1086
1323	8	1088	1087	1089
1324	8	1091	1090	1092
1325	8	1094	1093	1095
1326	8	1097	1096	1098
1327	8	1100	1099	1101
1328	8	1103	1102	1104
1329	8	1106	1105	1107
1330	8	1109	1108	1110
1331	8	1112	1111	1113
1332	8	1115	1114	1116
1333	8	1118	1117	1119
1334	8	1121	1120	1122
1335	8	1124	1123	1125
1336	8	1127	1126	1128
1337	8	1130	1129	1131
1338	8	1133	1132	1134
1339	8	1136	1135	1137
1340	8	1139	1138	1140
1341	8	1142	1141	1143
1342	8	1145	1144	1146
1343	8	1148	1147	1149
1344	8	1151	1150	1152
1345	8	1154	1153	1155
1346	8	1157	1156	1158
1347	8	1160	1159	1161
1348	8	1163	1162	1164
1349	8	1166	1165	1167
1350	8	1169	1168	1170
1351	8	1172	1171	1173
1352	8	1175	1174	1176
1353	8	1178	1177	1179
1354	8	1181	1180	1182
1355	8	1184	1183	1185
1356	8	1187	1186	1188
1357	8	1190	1189	1191
1358	8	1193	1192	1194
1359	8	1196	1195	1197
1360	8	1199	1198	1200
1361	8	1202	1201	1203
1362	8	1205	1204	1206
1363	8	1208	1207	1209
1364	8	1211	1210	1212
1365	8	1214	1213	1215
1366	8	1217	1216	1218
1367	8	1220	1219	1221
1368	8	1223	1222	1224
1369	8	1226	1225	1227
1370	8	1229	1228	1230
1371	8	1232	1231	1233
1372	8	1235	1234	1236
1373	8	1238	1237	1239
1374	8	1241	1240	1242
1375	8	1244	1243	1245
1376	8	1247	1246	1248
1377	8	1250	1249	1251
1378	8	1253	1252	1254
1379	8	1256	1255	1257
1380	8	1259	1258	1260
1381	8	1262	1261	1263
1382	8	1265	1264	1266
1383	8	1268	1267	1269
1384	8	1271	1270	1272
1385	8	1274	1273	1275
1386	8	1277	1276	1278
1387	8	1280	1279	1281
1388	8	1283	1282	1284
1389	8	1286	1285	1287
1390	8	1289	1288	1290
1391	8	1292	1291	1293
1392	8	1295	1294	1296
1393	8	1298	1297	1299
1394	8	1301	1300	1302
1395	8	1304	1303	1305
1396	8	1307	1306	1308
1397	8	1310	1309	1311
1398	8	1313	1312	1314
1399	8	1316	1315	1317
1400	8	1319	1318	1320
1401	8	1322	1321	1323
1402	8	1325	1324	1326
1403	8	1328	1327	1329
1404	8	1331	1330	1332
1405	8	1334	1333	1335
1406	8	1337	1336	1338
1407	8	1340	1339	1341
1408	8	1343	1342	1344
1409	8	1346	1345	1347
1410	8	1349	1348	1350
1411	8	1352	1351	1353
1412	8	1355	1354	1356
1413	8	1358	1357	1359
1414	8	1361	1360	1362
1415	8	1364	1363	1365
1416	8	1367	1366	1368
1417	8	1370	1369	1371
1418	8	1373	1372	1374
1419	8	1376	1375	1377
1420	8	1379	1378	1380
1421	8	1382	1381	1383
1422	8	1385	1384	1386
1423	8	1388	1387	1389
1424	8	1391	1390	1392
1425	8	1394	1393	1395
1426	8	1397	1396	1398
1427	8	1400	1399	1401
1428	8	1403	1402	1404
1429	8	1406	1405	1407
1430	8	1409	1408	1410
1431	8	1412	1411	1413
1432	8	1415	1414	1416
1433	8	1418	1417	1419
1434	8	1421	1420	1422
1435	8	1424	1423	1425
1436	8	1427	1426	1428
1437	8	1430	1429	1431
1438	8	1433	1432	1434
1439	8	1436	1435	1437
1440	8	1439	1438	1440
1441	8	1442	1441	1443
1442	8	1445	1444	1446
1443	8	1448	1447	1449
1444	8	1451	1450	1452
1445	8	1454	1453	1455
1446	8	1457	1456	1458
1447	8	1460	1459	1461
1448	8	1463	1462	1464
1449	8	1466	1465	1467
1450	8	1469	1468	1470
1451	8	1472	1471	1473
1452	8	1475	1474	1476
1453	8	1478	1477	1479
1454	8	1481	1480	1482
1455	8	1484	1483	1485
1456	8	1487	1486	1488
1457	8	1490	1489	1491
1458	8	1493	1492	1494
1459	8	1496	1495	1497
1460	8	1499	1498	1500
1461	8	1502	1501	1503
1462	8	1505	1504	1506
1463	8	1508	1507	1509
1464	8	1511	1510	1512
1465	8	1514	1513	1515
1466	8	1517	1516	1518
1467	8	1520	1519	1521
1468	8	1523	1522	1524
1469	8	1526	1525	1527
1470	8	1529	1528	1530
1471	8	1532	1531	1533
1472	8	1535	1534	1536
1473	8	1538	1537	1539
1474	8	1541	1540	1542
1475	8	1544	1543	1545
1476	8	1547	1546	1548
1477	8	1550	1549	1551
1478	8	1553	1552	1554
1479	8	1556	1555	1557
1480	8	1559	1558	1560
1481	8	1562	1561	1563
1482	8	1565	1564	1566
1483	8	1568	1567	1569
1484	8	1571	1570	1572
1485	8	1574	1573	1575
1486	8	1577	1576	1578
1487	8	1580	1579	1581
1488	8	1583	1582	1584
1489	8	1586	1585	1587
1490	8	1589	1588	1590
1491	8	1592	1591	1593
1492	8	1595	1594	1596
1493	8	1598	1597	1599
1494	8	1601	1600	1602
1495	8	1604	1603	1605
1496	8	1607	1606	1608
1497	8	1610	1609	1611
1498	8	1613	1612	1614
1499	8	1616	1615	1617
1500	8	1619	1618	1620
1501	8	1622	1621	1623
1502	8	1625	1624	1626
1503	8	1628	1627	1629
1504	8	1631	1630	1632
1505	8	1634	1633	1635
1506	8	1637	1636	1638
1507	8	1640	1639	1641
1508	8	1643	1642	1644
1509	8	1646	1645	1647
1510	8	1649	1648	1650
1511	8	1652	1651	1653
1512	8	1655	1654	1656
1513	8	1658	1657	1659
1514	8	1661	1660	1662
1515	8	1664	1663	1665
1516	8	1667	1666	1668
1517	8	1670	1669	1671
1518	8	1673	1672	1674
1519	8	1676	1675	1677
1520	8	1679	1678	1680
1521	8	1682	1681	1683
1522	8	1685	1684	1686
1523	8	1688	1687	1689
1524	8	1691	1690	1692
1525	8	1694	1693	1695
1526	8	1697	1696	1698
1527	8	1700	1699	1701
1528	8	1703	1702	1704
1529	8	1706	1705	1707
1530	8	1709	1708	1710
1531	8	1712	1711	1713
1532	8	1715	1714	1716
1533	8	1718	1717	1719
1534	8	1721	1720	1722
1535	8	1724	1723	1725
1536	8	1727	1726	1728
1537	8	1730	1729	1731
1538	8	1733	1732	1734
1539	8	1736	1735	1737
1540	8	1739	1738	1740
1541	8	1742	1741	1743
1542	8	1745	1744	1746
1543	8	1748	1747	1749
1544	8	1751	1750	1752
1545	8	1754	1753	1755
1546	8	1757	1756	1758
1547	8	1760	1759	1761
1548	8	1763	1762	1764
1549	8	1766	1765	1767
1550	8	1769	1768	1770
1551	8	1772	1771	1773
1552	8	1775	1774	1776
1553	8	1778	1777	1779
1554	8	1781	1780	1782
1555	8	1784	1783	1785
1556	8	1787	1786	1788
1557	8	1790	1789	1791
1558	8	1793	1792	1794
1559	8	1796	1795	1797
1560	8	1799	1798	1800
1561	8	1802	1801	1803
1562	8	1805	1804	1806
1563	8	1808	1807	1809
1564	8	1811	1810	1812
1565	8	1814	1813	1815
1566	8	1817	1816	1818
1567	8	1820	1819	1821
1568	8	1823	1822	1824
1569	8	1826	1825	1827
1570	8	1829	1828	1830
1571	8	1832	1831	1833
1572	8	1835	1834	1836
1573	8	1838	1837	1839
1574	8	1841	1840	1842
1575	8	1844	1843	1845
1576	8	1847	1846	1848
1577	8	1850	1849	1851
1578	8	1853	1852	1854
1579	8	1856	1855	1857
1580	8	1859	1858	1860
1581	8	1862	1861	1863
1582	8	1865	1864	1866
1583	8	1868	1867	1869
1584	8	1871	1870	1872
1585	8	1874	1873	1875
1586	8	1877	1876	1878
1587	8	1880	1879	1881
1588	8	1883	1882	1884
1589	8	1886	1885	1887
1590	8	1889	1888	1890
1591	8	1892	1891	1893
1592	8	1895	1894	1896
1593	8	1898	1897	1899
1594	8	1901	1900	1902
1595	8	1904	1903	1905
1596	8	1907	1906	1908
1597	8	1910	1909	1911
1598	8	1913	1912	1914
1599	8	1916	1915	1917
1600	8	1919	1918	1920
1601	8	1922	1921	1923
1602	8	1925	1924	1926
1603	8	1928	1927	1929
1604	8	1931	1930	1932
1605	8	1934	1933	1935
1606	8	1937	1936	1938
1607	8	1940	1939	1941
1608	8	1943	1942	1944
1609	8	1946	1945	1947
1610	8	1949	1948	1950
1611	8	1952	1951	1953
1612	8	1955	1954	1956
1613	8	1958	1957	1959
1614	8	1961	1960	1962
1615	8	1964	1963	1965
1616	8	1967	1966	1968
1617	8	1970	1969	1971
1618	8	1973	1972	1974
1619	8	1976	1975	1977
1620	8	1979	1978	1980
1621	8	1982	1981	1983
1622	8	1985	1984	1986
1623	8	1988	1987	1989
1624	8	1991	1990	1992
1625	8	1994	1993	1995
1626	8	1997	1996	1998
1627	8	2000	1999	2001
1628	8	2003	2002	2004
1629	8	2006	2005	2007
1630	8	2009	2008	2010
1631	8	2012	2011	2013
1632	8	2015	2014	2016
1633	8	2018	2017	2019
1634	8	2021	2020	2022
1635	8	2024	2023	2025
1636	8	2027	2026	2028
1637	8	2030	2029	2031
1638	8	2033	2032	2034
1639	8	2036	2035	2037
1640	8	2039	2038	2040
1641	8	2042	2041	2043
1642	8	2045	2044	2046
1643	8	2048	2047	2049
1644	8	2051	2050	2052
1645	8	2054	2053	2055
1646	8	2057	2056	2058
1647	8	2060	2059	2061
1648	8	2063	2062	2064
1649	8	2066	2065	2067
1650	8	2069	2068	2070
1651	8	2072	2071	2073
1652	8	2075	2074	2076
1653	8	2078	2077	2079
1654	8	2081	2080	2082
1655	8	2084	2083	2085
1656	8	2087	2086	2088
1657	8	2090	2089	2091
1658	8	2093	2092	2094
1659	8	2096	2095	2097
1660	8	2099	2098	2100
1661	8	2102	2101	2103
1662	8	2105	2104	2106
1663	8	2108	2107	2109
1664	8	2111	2110	2112
1665	8	2114	2113	2115
1666	8	2117	2116	2118
1667	8	2120	2119	2121
1668	8	2123	2122	2124
1669	8	2126	2125	2127
1670	8	2129	2128	2130
1671	8	2132	2131	2133
1672	8	2135	2134	2136
1673	8	2138	2137	2139
1674	8	2141	2140	2142
1675	8	2144	2143	2145
1676	8	2147	2146	2148
1677	8	2150	2149	2151
1678	8	2153	2152	2154
1679	8	2156	2155	2157
1680	8	2159	2158	2160
1681	8	2162	2161	2163
1682	8	2165	2164	2166
1683	8	2168	2167	2169
1684	8	2171	2170	2172
1685	8	2174	2173	2175
1686	8	2177	2176	2178
1687	8	2180	2179	2181
1688	8	2183	2182	2184
1689	8	2186	2185	2187
1690	8	2189	2188	2190
1691	8	2192	2191	2193
1692	8	2195	2194	2196
1693	8	2198	2197	2199
1694	8	2201	2200	2202
1695	8	2204	2203	2205
1696	8	2207	2206	2208
1697	8	2210	2209	2211
1698	8	2213	2212	2214
1699	8	2216	2215	2217
1700	8	2219	2218	2220
1701	8	2222	2221	2223
1702	8	2225	2224	2226
1703	8	2228	2227	2229
1704	8	2231	2230	2232
1705	8	2234	2233	2235
1706	8	2237	2236	2238
1707	8	2240	2239	2241
1708	8	2243	2242	2244
1709	8	2246	2245	2247
1710	8	2249	2248	2250
1711	8	2252	2251	2253
1712	8	2255	2254	2256
1713	8	2258	2257	2259
1714	8	2261	2260	2262
1715	8	2264	2263	2265
1716	8	2267	2266	2268
1717	8	2270	2269	2271
1718	8	2273	2272	2274
1719	8	2276	2275	2277
1720	8	2279	2278	2280
1721	8	2282	2281	2283
1722	8	2285	2284	2286
1723	8	2288	2287	2289
1724	8	2291	2290	2292
1725	8	2294	2293	2295
1726	8	2297	2296	2298
1727	8	2300	2299	2301
1728	8	2303	2302	2304
1729	8	2306	2305	2307
1730	8	2309	2308	2310
1731	8	2312	2311	2313
1732	8	2315	2314	2316
1733	8	2318	2317	2319
1734	8	2321	2320	2322
1735	8	2324	2323	2325
1736	8	2327	2326	2328
1737	8	2330	2329	2331
1738	8	2333	2332	2334
1739	8	2336	2335	2337
1740	8	2339	2338	2340
1741	8	2342	2341	2343
1742	8	2345	2344	2346
1743	8	2348	2347	2349
1744	8	2351	2350	2352
1745	8	2354	2353	2355
1746	8	2357	2356	2358
1747	8	2360	2359	2361
1748	8	2363	2362	2364
1749	8	2366	2365	2367
1750	8	2369	2368	2370
1751	8	2372	2371	2373
1752	8	2375	2374	2376
1753	8	2378	2377	2379
1754	8	2381	2380	2382
1755	8	2384	2383	2385
1756	8	2387	2386	2388
1757	8	2390	2389	2391
1758	8	2393	2392	2394
1759	8	2396	2395	2397
1760	8	2399	2398	2400
1761	8	2402	2401	2403
1762	8	2405	2404	2406
1763	8	2408	2407	2409
1764	8	2411	2410	2412
1765	8	2414	2413	2415
1766	8	2417	2416	2418
1767	8	2420	2419	2421
1768	8	2423	2422	2424
1769	8	2426	2425	2427
1770	8	2429	2428	2430
1771	8	2432	2431	2433
1772	8	2435	2434	2436
1773	8	2438	2437	2439
1774	8	2441	2440	2442
1775	8	2444	2443	2445
1776	8	2447	2446	2448
1777	8	2450	2449	2451
1778	8	2453	2452	2454
1779	8	2456	2455	2457
1780	8	2459	2458	2460
1781	8	2462	2461	2463
1782	8	2465	2464	2466
1783	8	2468	2467	2469
1784	8	2471	2470	2472
1785	8	2474	2473	2475
1786	8	2477	2476	2478
1787	8	2480	2479	2481
1788	8	2483	2482	2484
1789	8	2486	2485	2487
1790	8	2489	2488	2490
1791	8	2492	2491	2493
1792	8	2495	2494	2496
1793	8	2498	2497	2499
1794	8	2501	2500	2502
1795	8	2504	2503	2505
1796	8	2507	2506	2508
1797	8	2510	2509	2511
1798	8	2513	2512	2514
1799	8	2516	2515	2517
1800	8	2519	2518	2520
1801	8	2522	2521	2523
1802	8	2525	2524	2526
1803	8	2528	2527	2529
1804	8	2531	2530	2532
1805	8	2534	2533	2535
1806	8	2537	2536	2538
1807	8	2540	2539	2541
1808	8	2543	2542	2544
1809	8	2546	2545	2547
1810	8	2549	2548	2550
1811	8	2552	2551	2553
1812	8	2555	2554	2556
1813	8	2558	2557	2559
1814	8	2561	2560	2562
1815	8	2564	2563	2565
1816	8	2567	2566	2568
1817	8	2570	2569	2571
1818	8	2573	2572	2574
1819	8	2576	2575	2577
1820	8	2579	2578	2580
1821	8	2582	2581	2583
1822	8	2585	2584	2586
1823	8	2588	2587	2589
1824	8	2591	2590	2592
1825	8	2594	2593	2595
1826	8	2597	2596	2598
1827	8	2600	2599	2601
1828	8	2603	2602	2604
1829	8	2606	2605	2607
1830	8	2609	2608	2610
1831	8	2612	2611	2613
1832	8	2615	2614	2616
1833	8	2618	2617	2619
1834	8	2621	2620	2622
1835	8	2624	2623	2625
1836	8	2627	2626	2628
1837	8	2630	2629	2631
1838	8	2633	2632	2634
1839	8	2636	2635	2637
1840	8	2639	2638	2640
1841	8	2642	2641	2643
1842	8	2645	2644	2646
1843	8	2648	2647	2649
1844	8	2651	2650	2652
1845	8	2654	2653	2655
1846	8	2657	2656	2658
1847	8	2660	2659	2661
1848	8	2663	2662	2664
1849	8	2666	2665	2667
1850	8	2669	2668	2670
1851	8	2672	2671	2673
1852	8	2675	2674	2676
1853	8	2678	2677	2679
1854	8	2681	2680	2682
1855	8	2684	2683	2685
1856	8	2687	2686	2688
1857	8	2690	2689	2691
1858	8	2693	2692	2694
1859	8	2696	2695	2697
1860	8	2699	2698	2700
1861	8	2702	2701	2703
1862	8	2705	2704	2706
1863	8	2708	2707	2709
1864	8	2711	2710	2712
1865	8	2714	2713	2715
1866	8	2717	2716	2718
1867	8	2720	2719	2721
1868	8	2723	2722	2724
1869	8	2726	2725	2727
1870	8	2729	2728	2730
1871	8	2732	2731	2733
1872	8	2735	2734	2736
1873	8	2738	2737	2739
1874	8	2741	2740	2742
1875	8	2744	2743	2745
1876	8	2747	2746	2748
1877	8	2750	2749	2751
1878	8	2753	2752	2754
1879	8	2756	2755	2757
1880	8	2759	2758	2760
1881	8	2762	2761	2763
1882	8	2765	2764	2766
1883	8	2768	2767	2769
1884	8	2771	2770	2772
1885	8	2774	2773	2775
1886	8	2777	2776	2778
1887	8	2780	2779	2781
1888	8	2783	2782	2784
1889	8	2786	2785	2787
1890	8	2789	2788	2790
1891	8	2792	2791	2793
1892	8	2795	2794	2796
1893	8	2798	2797	2799
1894	8	2801	2800	2802
1895	8	2804	2803	2805
1896	8	2807	2806	2808
1897	8	2810	2809	2811
1898	8	2813	2812	2814
1899	8	2816	2815	2817
1900	8	2819	2818	2820
1901	8	2822	2821	2823
1902	8	2825	2824	2826
1903	8	2828	2827	2829
1904	8	2831	2830	2832
1905	8	2834	2833	2835
1906	8	2837	2836	2838
1907	8	2840	2839	2841
1908	8	2843	2842	2844
1909	8	2846	2845	2847
1910	8	2849	2848	2850
1911	8	2852	2851	2853
1912	8	2855	2854	2856
1913	8	2858	2857	2859
1914	8	2861	2860	2862
1915	8	2864	2863	2865
1916	8	2867	2866	2868
1917	8	2870	2869	2871
1918	8	2873	2872	2874
1919	8	2876	2875	2877
1920	8	2879	2878	2880
1921	8	2882	2881	2883
1922	8	2885	2884	2886
1923	8	2888	2887	2889
1924	8	2891	2890	2892
1925	8	2894	2893	2895
1926	8	2897	2896	2898
1927	8	2900	2899	2901
1928	8	2903	2902	2904
1929	8	2906	2905	2907
1930	8	2909	2908	2910
1931	8	2912	2911	2913
1932	8	2915	2914	2916
1933	8	2918	2917	2919
1934	8	2921	2920	2922
1935	8	2924	2923	2925
1936	8	2927	2926	2928
1937	8	2930	2929	2931
1938	8	2933	2932	2934
1939	8	2936	2935	2937
1940	8	2939	2938	2940
1941	8	2942	2941	2943
1942	8	2945	2944	2946
1943	8	2948	2947	2949
1944	8	2951	2950	2952
1945	8	2954	2953	2955
1946	8	2957	2956	2958
1947	8	2960	2959	2961
1948	8	2963	2962	2964
1949	8	2966	2965	2967
1950	8	2969	2968	2970
1951	8	2972	2971	2973
1952	8	2975	2974	2976
1953	8	2978	2977	2979
1954	8	2981	2980	2982
1955	8	2984	2983	2985
1956	8	2987	2986	2988
1957	8	2990	2989	2991
1958	8	2993	2992	2994
1959	8	2996	2995	2997
1960	8	2999	2998	3000
1961	8	3002	3001	3003
1962	8	3005	3004	3006
1963	8	3008	3007	3009
1964	8	3011	3010	3012
1965	8	3014	3013	3015
1966	8	3017	3016	3018
1967	8	3020	3019	3021
1968	8	3023	3022	3024
1969	8	3026	3025	3027
1970	8	3029	3028	3030
1971	8	3032	3031	3033
1972	8	3035	3034	3036
1973	8	3038	3037	3039
1974	8	3041	3040	3042
1975	8	3044	3043	3045
1976	8	3047	3046	3048
1977	8	3050	3049	3051
1978	8	3053	3052	3054
1979	8	3056	3055	3057
1980	8	3059	3058	3060
1981	8	3062	3061	3063
1982	8	3065	3064	3066
1983	8	3068	3067	3069
1984	8	3071	3070	3072
1985	8	3074	3073	3075
1986	8	3077	3076	3078
1987	8	3080	3079	3081
1988	8	3083	3082	3084
1989	8	3086	3085	3087
1990	8	3089	3088	3090
1991	8	3092	3091	3093
1992	8	3095	3094	3096
1993	8	3098	3097	3099
1994	8	3101	3100	3102
1995	8	3104	3103	3105
1996	8	3107	3106	3108
1997	8	3110	3109	3111
1998	8	3113	3112	3114
1999	8	3116	3115	3117
2000	8	3119	3118	3120
2001	8	3122	3121	3123
2002	8	3125	3124	3126
2003	8	3128	3127	3129
2004	8	3131	3130	3132
2005	8	3134	3133	3135
2006	8	3137	3136	3138
2007	8	3140	3139	3141
2008	8	3143	3142	3144
2009	8	3146	3145	3147
2010	8	3149	3148	3150
2011	8	3152	3151	3153
2012	8	3155	3154	3156
2013	8	3158	3157	3159
2014	8	3161	3160	3162
2015	8	3164	3163	3165
2016	8	3167	3166	3168
2017	8	3170	3169	3171
2018	8	3173	3172	3174
2019	8	3176	3175	3177
2020	8	3179	3178	3180
2021	8	3182	3181	3183
2022	8	3185	3184	3186
2023	8	3188	3187	3189
2024	8	3191	3190	3192
2025	8	3194	3193	3195
2026	8	3197	3196	3198
2027	8	3200	3199	3201
2028	8	3203	3202	3204
2029	8	3206	3205	3207
2030	8	3209	3208	3210
2031	8	3212	3211	3213
2032	8	3215	3214	3216
2033	8	3218	3217	3219
2034	8	3221	3220	3222
2035	8	3224	3223	3225
2036	8	3227	3226	3228
2037	8	3230	3229	3231
2038	8	3233	3232	3234
2039	8	3236	3235	3237
2040	8	3239	3238	3240
2041	8	3242	3241	3243
2042	8	3245	3244	3246
2043	8	3248	3247	3249
2044	8	3251	3250	3252
2045	8	3254	3253	3255
2046	8	3257	3256	3258
2047	8	3260	3259	3261
2048	8	3263	3262	3264
2049	8	3266	3265	3267
2050	8	3269	3268	3270
2051	8	3272	3271	3273
2052	8	3275	3274	3276
2053	8	3278	3277	3279
2054	8	3281	3280	3282
2055	8	3284	3283	3285
2056	8	3287	3286	3288
2057	8	3290	3289	3291
2058	8	3293	3292	3294
2059	8	3296	3295	3297
2060	8	3299	3298	3300
2061	8	3302	3301	3303
2062	8	3305	3304	3306
2063	8	3308	3307	3309
2064	8	3311	3310	3312
2065	8	3314	3313	3315
2066	8	3317	3316	3318
2067	8	3320	3319	3321
2068	8	3323	3322	3324
2069	8	3326	3325	3327
2070	8	3329	3328	3330
2071	8	3332	3331	3333
2072	8	3335	3334	3336
2073	8	3338	3337	3339
2074	8	3341	3340	3342
2075	8	3344	3343	3345
2076	8	3347	3346	3348
2077	8	3350	3349	3351
2078	8	3353	3352	3354
2079	8	3356	3355	3357
2080	8	3359	3358	3360
2081	8	3362	3361	3363
2082	8	3365	3364	3366
2083	8	3368	3367	3369
2084	8	3371	3370	3372
2085	8	3374	3373	3375
2086	8	3377	3376	3378
2087	8	3380	3379	3381
2088	8	3383	3382	3384
2089	8	3386	3385	3387
2090	8	3389	3388	3390
2091	8	3392	3391	3393
2092	8	3395	3394	3396
2093	8	3398	3397	3399
2094	8	3401	3400	3402
2095	8	3404	3403	3405
2096	8	3407	3406	3408
2097	8	3410	3409	3411
2098	8	3413	3412	3414
2099	8	3416	3415	3417
2100	8	3419	3418	3420
2101	8	3422	3421	3423
2102	8	3425	3424	3426
2103	8	3428	3427	3429
2104	8	3431	3430	3432
2105	8	3434	3433	3435
2106	8	3437	3436	3438
2107	8	3440	3439	3441
2108	8	3443	3442	3444
2109	8	3446	3445	3447
2110	8	3449	3448	3450
2111	8	3452	3451	3453
2112	8	3455	3454	3456
2113	8	3458	3457	3459
2114	8	3461	3460	3462
2115	8	3464	3463	3465
2116	8	3467	3466	3468
2117	8	3470	3469	3471
2118	8	3473	3472	3474
2119	8	3476	3475	3477
2120	8	3479	3478	3480
2121	8	3482	3481	3483
2122	8	3485	3484	3486
2123	8	3488	3487	3489
2124	8	3491	3490	3492
2125	8	3494	3493	3495
2126	8	3497	3496	3498
2127	8	3500	3499	3501
2128	8	3503	3502	3504
2129	8	3506	3505	3507
2130	8	3509	3508	3510
2131	8	3512	3511	3513
2132	8	3515	3514	3516
2133	8	3518	3517	3519
2134	8	3521	3520	3522
2135	8	3524	3523	3525
2136	8	3527	3526	3528
2137	8	3530	3529	3531
2138	8	3533	3532	3534
2139	8	3536	3535	3537
2140	8	3539	3538	3540
2141	8	3542	3541	3543
2142	8	3545	3544	3546
2143	8	3548	3547	3549
2144	8	3551	3550	3552
2145	8	3554	3553	3555
2146	8	3557	3556	3558
2147	8	3560	3559	3561
2148	8	3563	3562	3564
2149	8	3566	3565	3567
2150	8	3569	3568	3570
2151	8	3572	3571	3573
2152	8	3575	3574	3576
2153	8	3578	3577	3579
2154	8	3581	3580	3582
2155	8	3584	3583	3585
2156	8	3587	3586	3588
2157	8	3590	3589	3591
2158	8	3593	3592	3594
2159	8	3596	3595	3597
2160	8	3599	3598	3600
2161	8	3602	3601	3603
2162	8	3605	3604	3606
2163	8	3608	3607	3609
2164	8	3611	3610	3612
2165	8	3614	3613	3615
2166	8	3617	3616	3618
2167	8	3620	3619	3621
2168	8	3623	3622	3624
2169	8	3626	3625	3627
2170	8	3629	3628	3630
2171	8	3632	3631	3633
2172	8	3635	3634	3636
2173	8	3638	3637	3639
2174	8	3641	3640	3642
2175	8	3644	3643	3645
2176	8	3647	3646	3648
2177	8	3650	3649	3651
2178	8	3653	3652	3654
2179	8	3656	3655	3657
2180	8	3659	3658	3660
2181	8	3662	3661	3663
2182	8	3665	3664	3666
2183	8	3668	3667	3669
2184	8	3671	3670	3672
2185	8	3674	3673	3675
2186	8	3677	3676	3678
2187	8	3680	3679	3681
2188	8	3683	3682	3684
2189	8	3686	3685	3687
2190	8	3689	3688	3690
2191	8	3692	3691	3693
2192	8	3695	3694	3696
2193	8	3698	3697	3699
2194	8	3701	3700	3702
2195	8	3704	3703	3705
2196	8	3707	3706	3708
2197	8	3710	3709	3711
2198	8	3713	3712	3714
2199	8	3716	3715	3717
2200	8	3719	3718	3720
2201	8	3722	3721	3723
2202	8	3725	3724	3726
2203	8	3728	3727	3729
2204	8	3731	3730	3732
2205	8	3734	3733	3735
2206	8	3737	3736	3738
2207	8	3740	3739	3741
2208	8	3743	3742	3744
2209	8	3746	3745	3747
2210	8	3749	3748	3750
2211	8	3752	3751	3753
2212	8	3755	3754	3756
2213	8	3758	3757	3759
2214	8	3761	3760	3762
2215	8	3764	3763	3765
2216	8	3767	3766	3768
2217	8	3770	3769	3771
2218	8	3773	3772	3774
2219	8	3776	3775	3777
2220	8	3779	3778	3780
2221	8	3782	3781	3783
2222	8	3785	3784	3786
2223	8	3788	3787	3789
2224	8	3791	3790	3792
2225	8	3794	3793	3795
2226	8	3797	3796	3798
2227	8	3800	3799	3801
2228	8	3803	3802	3804
2229	8	3806	3805	3807
2230	8	3809	3808	3810
2231	8	3812	3811	3813
2232	8	3815	3814	3816
2233	8	3818	3817	3819
2234	8	3821	3820	3822
2235	8	3824	3823	3825
2236	8	3827	3826	3828
2237	8	3830	3829	3831
2238	8	3833	3832	3834
2239	8	3836	3835	3837
2240	8	3839	3838	3840
2241	8	3842	3841	3843
2242	8	3845	3844	3846
2243	8	3848	3847	3849
2244	8	3851	3850	3852
2245	8	3854	3853	3855
2246	8	3857	3856	3858
2247	8	3860	3859	3861
2248	8	3863	3862	3864
2249	8	3866	3865	3867
2250	8	3869	3868	3870
2251	8	3872	3871	3873
2252	8	3875	3874	3876
2253	8	3878	3877	3879
2254	8	3881	3880	3882
2255	8	3884	3883	3885
2256	8	3887	3886	3888
2257	8	3890	3889	3891
2258	8	3893	3892	3894
2259	8	3896	3895	3897
2260	8	3899	3898	3900
2261	8	3902	3901	3903
2262	8	3905	3904	3906
2263	8	3908	3907	3909
2264	8	3911	3910	3912
2265	8	3914	3913	3915
2266	8	3917	3916	3918
2267	8	3920	3919	3921
2268	8	3923	3922	3924
2269	8	3926	3925	3927
2270	8	3929	3928	3930
2271	8	3932	3931	3933
2272	8	3935	3934	3936
2273	8	3938	3937	3939
2274	8	3941	3940	3942
2275	8	3944	3943	3945
2276	8	3947	3946	3948
2277	8	3950	3949	3951
2278	8	3953	3952	3954
2279	8	3956	3955	3957
2280	8	3959	3958	3960
2281	8	3962	3961	3963
2282	8	3965	3964	3966
2283	8	3968	3967	3969
2284	8	3971	3970	3972
2285	8	3974	3973	3975
2286	8	3977	3976	3978
2287	8	3980	3979	3981
2288	8	3983	3982	3984
2289	8	3986	3985	3987
2290	8	3989	3988	3990
2291	8	3992	3991	3993
2292	8	3995	3994	3996
2293	8	3998	3997	3999
2294	8	4001	4000	4002
2295	8	4004	4003	4005
2296	8	4007	4006	4008
2297	8	4010	4009	4011
2298	8	4013	4012	4014
2299	8	4016	4015	4017
2300	8	4019	4018	4020
2301	8	4022	4021	4023
2302	8	4025	4024	4026
2303	8	4028	4027	4029
2304	8	4031	4030	4032
2305	8	4034	4033	4035
2306	8	4037	4036	4038
2307	8	4040	4039	4041
2308	8	4043	4042	4044
2309	8	4046	4045	4047
2310	8	4049	4048	4050
2311	8	4052	4051	4053
2312	8	4055	4054	4056
2313	8	4058	4057	4059
2314	8	4061	4060	4062
2315	8	4064	4063	4065
2316	8	4067	4066	4068
2317	8	4070	4069	4071
2318	8	4073	4072	4074
2319	8	4076	4075	4077
2320	8	4079	4078	4080
2321	8	4082	4081	4083
2322	8	4085	4084	4086
2323	8	4088	4087	4089
2324	8	4091	4090	4092
2325	8	4094	4093	4095
2326	8	4097	4096	4098
2327	8	4100	4099	4101
2328	8	4103	4102	4104
2329	8	4106	4105	4107
2330	8	4109	4108	4110
2331	8	4112	4111	4113
2332	8	4115	4114	4116
2333	8	4118	4117	4119
2334	8	4121	4120	4122
2335	8	4124	4123	4125
2336	8	4127	4126	4128
2337	8	4130	4129	4131
2338	8	4133	4132	4134
2339	8	4136	4135	4137
2340	8	4139	4138	4140
2341	8	4142	4141	4143
2342	8	4145	4144	4146
2343	8	4148	4147	4149
2344	8	4151	4150	4152
2345	8	4154	4153	4155
2346	8	4157	4156	4158
2347	8	4160	4159	4161
2348	8	4163	4162	4164
2349	8	4166	4165	4167
2350	8	4169	4168	4170
2351	8	4172	4171	4173
2352	8	4175	4174	4176
2353	8	4178	4177	4179
2354	8	4181	4180	4182
2355	8	4184	4183	4185
2356	8	4187	4186	4188
2357	8	4190	4189	4191
2358	8	4193	4192	4194
2359	8	4196	4195	4197
2360	8	4199	4198	4200
2361	8	4202	4201	4203
2362	8	4205	4204	4206
2363	8	4208	4207	4209
2364	8	4211	4210	4212
2365	8	4214	4213	4215
2366	8	4217	4216	4218
2367	8	4220	4219	4221
2368	8	4223	4222	4224
2369	8	4226	4225	4227
2370	8	4229	4228	4230
2371	8	4232	4231	4233
2372	8	4235	4234	4236
2373	8	4238	4237	4239
2374	8	4241	4240	4242
2375	8	4244	4243	4245
2376	8	4247	4246	4248
2377	8	4250	4249	4251
2378	8	4253	4252	4254
2379	8	4256	4255	4257
2380	8	4259	4258	4260
2381	8	4262	4261	4263
2382	8	4265	4264	4266
2383	8	4268	4267	4269
2384	8	4271	4270	4272
2385	8	4274	4273	4275
2386	8	4277	4276	4278
2387	8	4280	4279	4281
2388	8	4283	4282	4284
2389	8	4286	4285	4287
2390	8	4289	4288	4290
2391	8	4292	4291	4293
2392	8	4295	4294	4296
2393	8	4298	4297	4299
2394	8	4301	4300	4302
2395	8	4304	4303	4305
2396	8	4307	4306	4308
2397	8	4310	4309	4311
2398	8	4313	4312	4314
2399	8	4316	4315	4317
2400	8	4319	4318	4320
2401	8	4322	4321	4323
2402	8	4325	4324	4326
2403	8	4328	4327	4329
2404	8	4331	4330	4332
2405	8	4334	4333	4335
2406	8	4337	4336	4338
2407	8	4340	4339	4341
2408	8	4343	4342	4344
2409	8	4346	4345	4347
2410	8	4349	4348	4350
2411	8	4352	4351	4353
2412	8	4355	4354	4356
2413	8	4358	4357	4359
2414	8	4361	4360	4362
2415	8	4364	4363	4365
2416	8	4367	4366	4368
2417	8	4370	4369	4371
2418	8	4373	4372	4374
2419	8	4376	4375	4377
2420	8	4379	4378	4380
2421	8	4382	4381	4383
2422	8	4385	4384	4386
2423	8	4388	4387	4389
2424	8	4391	4390	4392
2425	8	4394	4393	4395
2426	8	4397	4396	4398
2427	8	4400	4399	4401
2428	8	4403	4402	4404
2429	8	4406	4405	4407
2430	8	4409	4408	4410
2431	8	4412	4411	4413
2432	8	4415	4414	4416
2433	8	4418	4417	4419
2434	8	4421	4420	4422
2435	8	4424	4423	4425
2436	8	4427	4426	4428
2437	8	4430	4429	4431
2438	8	4433	4432	4434
2439	8	4436	4435	4437
2440	8	4439	4438	4440
2441	8	4442	4441	4443
2442	8	4445	4444	4446
2443	8	4448	4447	4449
2444	8	4451	4450	4452
2445	8	4454	4453	4455
2446	8	4457	4456	4458
2447	8	4460	4459	4461
2448	8	4463	4462	4464
2449	8	4466	4465	4467
2450	8	4469	4468	4470
2451	8	4472	4471	4473
2452	8	4475	4474	4476
2453	8	4478	4477	4479
2454	8	4481	4480	4482
2455	8	4484	4483	4485
2456	8	4487	4486	4488
2457	8	4490	4489	4491
2458	8	4493	4492	4494
2459	8	4496	4495	4497
2460	8	4499	4498	4500
2461	8	4502	4501	4503
2462	8	4505	4504	4506
2463	8	4508	4507	4509
2464	8	4511	4510	4512
2465	8	4514	4513	4515
2466	8	4517	4516	4518
2467	8	4520	4519	4521
2468	8	4523	4522	4524
2469	8	4526	4525	4527
2470	8	4529	4528	4530
2471	8	4532	4531	4533
2472	8	4535	4534	4536
2473	8	4538	4537	4539
2474	8	4541	4540	4542
2475	8	4544	4543	4545
2476	8	4547	4546	4548
2477	8	4550	4549	4551
2478	8	4553	4552	4554
2479	8	4556	4555	4557
2480	8	4559	4558	4560
2481	8	4562	4561	4563
2482	8	4565	4564	4566
2483	8	4568	4567	4569
2484	8	4571	4570	4572
2485	8	4574	4573	4575
2486	8	4577	4576	4578
2487	8	4580	4579	4581
2488	8	4583	4582	4584
2489	8	4586	4585	4587
2490	8	4589	4588	4590
2491	8	4592	4591	4593
2492	8	4595	4594	4596
2493	8	4598	4597	4599
2494	8	4601	4600	4602
2495	8	4604	4603	4605
2496	8	4607	4606	4608
2497	8	4610	4609	4611
2498	8	4613	4612	4614
2499	8	4616	4615	4617
2500	8	4619	4618	4620
2501	8	4622	4621	4623
2502	8	4625	4624	4626
2503	8	4628	4627	4629
2504	8	4631	4630	4632
2505	8	4634	4633	4635
2506	8	4637	4636	4638
2507	8	4640	4639	4641
2508	8	4643	4642	4644
2509	8	4646	4645	4647
2510	8	4649	4648	4650
2511	8	4652	4651	4653
2512	8	4655	4654	4656
2513	8	4658	4657	4659
2514	8	4661	4660	4662
2515	8	4664	4663	4665
2516	8	4667	4666	4668
2517	8	4670	4669	4671
2518	8	4673	4672	4674
2519	8	4676	4675	4677
2520	8	4679	4678	4680
2521	8	4682	4681	4683
2522	8	4685	4684	4686
2523	8	4688	4687	4689
2524	8	4691	4690	4692
2525	8	4694	4693	4695
2526	8	4697	4696	4698
2527	8	4700	4699	4701
2528	8	4703	4702	4704
2529	8	4706	4705	4707
2530	8	4709	4708	4710
2531	8	4712	4711	4713
2532	8	4715	4714	4716
2533	8	4718	4717	4719
2534	8	4721	4720	4722
2535	8	4724	4723	4725
2536	8	4727	4726	4728
2537	8	4730	4729	4731
2538	8	4733	4732	4734
2539	8	4736	4735	4737
2540	8	4739	4738	4740
2541	8	4742	4741	4743
2542	8	4745	4744	4746
2543	8	4748	4747	4749
2544	8	4751	4750	4752
2545	8	4754	4753	4755
2546	8	4757	4756	4758
2547	8	4760	4759	4761
2548	8	4763	4762	4764
2549	8	4766	4765	4767
2550	8	4769	4768	4770
2551	8	4772	4771	4773
2552	8	4775	4774	4776
2553	8	4778	4777	4779
2554	8	4781	4780	4782
2555	8	4784	4783	4785
2556	8	4787	4786	4788
2557	8	4790	4789	4791
2558	8	4793	4792	4794
2559	8	4796	4795	4797
2560	8	4799	4798	4800
2561	8	4802	4801	4803
2562	8	4805	4804	4806
2563	8	4808	4807	4809
2564	8	4811	4810	4812
2565	8	4814	4813	4815
2566	8	4817	4816	4818
2567	8	4820	4819	4821
2568	8	4823	4822	4824
2569	8	4826	4825	4827
2570	8	4829	4828	4830
2571	8	4832	4831	4833
2572	8	4835	4834	4836
2573	8	4838	4837	4839
2574	8	4841	4840	4842
2575	8	4844	4843	4845
2576	8	4847	4846	4848
2577	8	4850	4849	4851
2578	8	4853	4852	4854
2579	8	4856	4855	4857
2580	8	4859	4858	4860
2581	8	4862	4861	4863
2582	8	4865	4864	4866
2583	8	4868	4867	4869
2584	8	4871	4870	4872
2585	8	4874	4873	4875
2586	8	4877	4876	4878
2587	8	4880	4879	4881
2588	8	4883	4882	4884
2589	8	4886	4885	4887
2590	8	4889	4888	4890
2591	8	4892	4891	4893
2592	8	4895	4894	4896
2593	8	4898	4897	4899
2594	8	4901	4900	4902
2595	8	4904	4903	4905
2596	8	4907	4906	4908
2597	8	4910	4909	4911
2598	8	4913	4912	4914
2599	8	4916	4915	4917
2600	8	4919	4918	4920
2601	8	4922	4921	4923
2602	8	4925	4924	4926
2603	8	4928	4927	4929
2604	8	4931	4930	4932
2605	8	4934	4933	4935
2606	8	4937	4936	4938
2607	8	4940	4939	4941
2608	8	4943	4942	4944
2609	8	4946	4945	4947
2610	8	4949	4948	4950
2611	8	4952	4951	4953
2612	8	4955	4954	4956
2613	8	4958	4957	4959
2614	8	4961	4960	4962
2615	8	4964	4963	4965
2616	8	4967	4966	4968
2617	8	4970	4969	4971
2618	8	4973	4972	4974
2619	8	4976	4975	4977
2620	8	4979	4978	4980
2621	8	4982	4981	4983
2622	8	4985	4984	4986
2623	8	4988	4987	4989
2624	8	4991	4990	4992
2625	8	4994	4993	4995
2626	8	4997	4996	4998
2627	8	5000	4999	5001
2628	8	5003	5002	5004
2629	8	5006	5005	5007
2630	8	5009	5008	5010
2631	8	5012	5011	5013
2632	8	5015	5014	5016
2633	8	5018	5017	5019
2634	8	5021	5020	5022
2635	8	5024	5023	5025
2636	8	5027	5026	5028
2637	8	5030	5029	5031
2638	8	5033	5032	5034
2639	8	5036	5035	5037
2640	8	5039	5038	5040
2641	8	5042	5041	5043
2642	8	5045	5044	5046
2643	8	5048	5047	5049
2644	8	5051	5050	5052
2645	8	5054	5053	5055
2646	8	5057	5056	5058
2647	8	5060	5059	5061
2648	8	5063	5062	5064
2649	8	5066	5065	5067
2650	8	5069	5068	5070
2651	8	5072	5071	5073
2652	8	5075	5074	5076
2653	8	5078	5077	5079
2654	8	5081	5080	5082
2655	8	5084	5083	5085
2656	8	5087	5086	5088
2657	8	5090	5089	5091
2658	8	5093	5092	5094
2659	8	5096	5095	5097
2660	8	5099	5098	5100
2661	8	5102	5101	5103
2662	8	5105	5104	5106
2663	8	5108	5107	5109
2664	8	5111	5110	5112
2665	8	5114	5113	5115
2666	8	5117	5116	5118
2667	8	5120	5119	5121
2668	8	5123	5122	5124
2669	8	5126	5125	5127
2670	8	5129	5128	5130
2671	8	5132	5131	5133
2672	8	5135	5134	5136
2673	8	5138	5137	5139
2674	8	5141	5140	5142
2675	8	5144	5143	5145
2676	8	5147	5146	5148
2677	8	5150	5149	5151
2678	8	5153	5152	5154
2679	8	5156	5155	5157
2680	8	5159	5158	5160
2681	8	5162	5161	5163
2682	8	5165	5164	5166
2683	8	5168	5167	5169
2684	8	5171	5170	5172
2685	8	5174	5173	5175
2686	8	5177	5176	5178
2687	8	5180	5179	5181
2688	8	5183	5182	5184
2689	8	5186	5185	5187
2690	8	5189	5188	5190
2691	8	5192	5191	5193
2692	8	5195	5194	5196
2693	8	5198	5197	5199
2694	8	5201	5200	5202
2695	8	5204	5203	5205
2696	8	5207	5206	5208
2697	8	5210	5209	5211
2698	8	5213	5212	5214
2699	8	5216	5215	5217
2700	8	5219	5218	5220
2701	8	5222	5221	5223
2702	8	5225	5224	5226
2703	8	5228	5227	5229
2704	8	5231	5230	5232
2705	8	5234	5233	5235
2706	8	5237	5236	5238
2707	8	5240	5239	5241
2708	8	5243	5242	5244
2709	8	5246	5245	5247
2710	8	5249	5248	5250
2711	8	5252	5251	5253
2712	8	5255	5254	5256
2713	8	5258	5257	5259
2714	8	5261	5260	5262
2715	8	5264	5263	5265
2716	8	5267	5266	5268
2717	8	5270	5269	5271
2718	8	5273	5272	5274
2719	8	5276	5275	5277
2720	8	5279	5278	5280
2721	8	5282	5281	5283
2722	8	5285	5284	5286
2723	8	5288	5287	5289
2724	8	5291	5290	5292
2725	8	5294	5293	5295
2726	8	5297	5296	5298
2727	8	5300	5299	5301
2728	8	5303	5302	5304
2729	8	5306	5305	5307
2730	8	5309	5308	5310
2731	8	5312	5311	5313
2732	8	5315	5314	5316
2733	8	5318	5317	5319
2734	8	5321	5320	5322
2735	8	5324	5323	5325
2736	8	5327	5326	5328
2737	8	5330	5329	5331
2738	8	5333	5332	5334
2739	8	5336	5335	5337
2740	8	5339	5338	5340
2741	8	5342	5341	5343
2742	8	5345	5344	5346
2743	8	5348	5347	5349
2744	8	5351	5350	5352
2745	8	5354	5353	5355
2746	8	5357	5356	5358
2747	8	5360	5359	5361
2748	8	5363	5362	5364
2749	8	5366	5365	5367
2750	8	5369	5368	5370
2751	8	5372	5371	5373
2752	8	5375	5374	5376
2753	8	5378	5377	5379
2754	8	5381	5380	5382
2755	8	5384	5383	5385
2756	8	5387	5386	5388
2757	8	5390	5389	5391
2758	8	5393	5392	5394
2759	8	5396	5395	5397
2760	8	5399	5398	5400
2761	8	5402	5401	5403
2762	8	5405	5404	5406
2763	8	5408	5407	5409
2764	8	5411	5410	5412
2765	8	5414	5413	5415
2766	8	5417	5416	5418
2767	8	5420	5419	5421
2768	8	5423	5422	5424
2769	8	5426	5425	5427
2770	8	5429	5428	5430
2771	8	5432	5431	5433
2772	8	5435	5434	5436
2773	8	5438	5437	5439
2774	8	5441	5440	5442
2775	8	5444	5443	5445
2776	8	5447	5446	5448
2777	8	5450	5449	5451
2778	8	5453	5452	5454
2779	8	5456	5455	5457
2780	8	5459	5458	5460
2781	8	5462	5461	5463
2782	8	5465	5464	5466
2783	8	5468	5467	5469
2784	8	5471	5470	5472
2785	8	5474	5473	5475
2786	8	5477	5476	5478
2787	8	5480	5479	5481
2788	8	5483	5482	5484
2789	8	5486	5485	5487
2790	8	5489	5488	5490
2791	8	5492	5491	5493
2792	8	5495	5494	5496
2793	8	5498	5497	5499
2794	8	5501	5500	5502
2795	8	5504	5503	5505
2796	8	5507	5506	5508
2797	8	5510	5509	5511
2798	8	5513	5512	5514
2799	8	5516	5515	5517
2800	8	5519	5518	5520
2801	8	5522	5521	5523
2802	8	5525	5524	5526
2803	8	5528	5527	5529
2804	8	5531	5530	5532
2805	8	5534	5533	5535
2806	8	5537	5536	5538
2807	8	5540	5539	5541
2808	8	5543	5542	5544
2809	8	5546	5545	5547
2810	8	5549	5548	5550
2811	8	5552	5551	5553
2812	8	5555	5554	5556
2813	8	5558	5557	5559
2814	8	5561	5560	5562
2815	8	5564	5563	5565
2816	8	5567	5566	5568
2817	8	5570	5569	5571
2818	8	5573	5572	5574
2819	8	5576	5575	5577
2820	8	5579	5578	5580
2821	8	5582	5581	5583
2822	8	5585	5584	5586
2823	8	5588	5587	5589
2824	8	5591	5590	5592
2825	8	5594	5593	5595
2826	8	5597	5596	5598
2827	8	5600	5599	5601
2828	8	5603	5602	5604
2829	8	5606	5605	5607
2830	8	5609	5608	5610
2831	8	5612	5611	5613
2832	8	5615	5614	5616
2833	8	5618	5617	5619
2834	8	5621	5620	5622
2835	8	5624	5623	5625
2836	8	5627	5626	5628
2837	8	5630	5629	5631
2838	8	5633	5632	5634
2839	8	5636	5635	5637
2840	8	5639	5638	5640
2841	8	5642	5641	5643
2842	8	5645	5644	5646
2843	8	5648	5647	5649
2844	8	5651	5650	5652
2845	8	5654	5653	5655
2846	8	5657	5656	5658
2847	8	5660	5659	5661
2848	8	5663	5662	5664
2849	8	5666	5665	5667
2850	8	5669	5668	5670
2851	8	5672	5671	5673
2852	8	5675	5674	5676
2853	8	5678	5677	5679
2854	8	5681	5680	5682
2855	8	5684	5683	5685
2856	8	5687	5686	5688
2857	8	5690	5689	5691
2858	8	5693	5692	5694
2859	8	5696	5695	5697
2860	8	5699	5698	5700
2861	8	5702	5701	5703
2862	8	5705	5704	5706
2863	8	5708	5707	5709
2864	8	5711	5710	5712
2865	8	5714	5713	5715
2866	8	5717	5716	5718
2867	8	5720	5719	5721
2868	8	5723	5722	5724
2869	8	5726	5725	5727
2870	8	5729	5728	5730
2871	8	5732	5731	5733
2872	8	5735	5734	5736
2873	8	5738	5737	5739
2874	8	5741	5740	5742
2875	8	5744	5743	5745
2876	8	5747	5746	5748
2877	8	5750	5749	5751
2878	8	5753	5752	5754
2879	8	5756	5755	5757
2880	8	5759	5758	5760
2881	8	5762	5761	5763
2882	8	5765	5764	5766
2883	8	5768	5767	5769
2884	8	5771	5770	5772
2885	8	5774	5773	5775
2886	8	5777	5776	5778
2887	8	5780	5779	5781
2888	8	5783	5782	5784
2889	8	5786	5785	5787
2890	8	5789	5788	5790
2891	8	5792	5791	5793
2892	8	5795	5794	5796
2893	8	5798	5797	5799
2894	8	5801	5800	5802
2895	8	5804	5803	5805
2896	8	5807	5806	5808
2897	8	5810	5809	5811
2898	8	5813	5812	5814
2899	8	5816	5815	5817
2900	8	5819	5818	5820
2901	8	5822	5821	5823
2902	8	5825	5824	5826
2903	8	5828	5827	5829
2904	8	5831	5830	5832
2905	8	5834	5833	5835
2906	8	5837	5836	5838
2907	8	5840	5839	5841
2908	8	5843	5842	5844
2909	8	5846	5845	5847
2910	8	5849	5848	5850
2911	8	5852	5851	5853
2912	8	5855	5854	5856
2913	8	5858	5857	5859
2914	8	5861	5860	5862
2915	8	5864	5863	5865
2916	8	5867	5866	5868
2917	8	5870	5869	5871
2918	8	5873	5872	5874
2919	8	5876	5875	5877
2920	8	5879	5878	5880
2921	8	5882	5881	5883
2922	8	5885	5884	5886
2923	8	5888	5887	5889
2924	8	5891	5890	5892
2925	8	5894	5893	5895
2926	8	5897	5896	5898
2927	8	5900	5899	5901
2928	8	5903	5902	5904
2929	8	5906	5905	5907
2930	8	5909	5908	5910
2931	8	5912	5911	5913
2932	8	5915	5914	5916
2933	8	5918	5917	5919
2934	8	5921	5920	5922
2935	8	5924	5923	5925
2936	8	5927	5926	5928
2937	8	5930	5929	5931
2938	8	5933	5932	5934
2939	8	5936	5935	5937
2940	8	5939	5938	5940
2941	8	5942	5941	5943
2942	8	5945	5944	5946
2943	8	5948	5947	5949
2944	8	5951	5950	5952
2945	8	5954	5953	5955
2946	8	5957	5956	5958
2947	8	5960	5959	5961
2948	8	5963	5962	5964
2949	8	5966	5965	5967
2950	8	5969	5968	5970
2951	8	5972	5971	5973
2952	8	5975	5974	5976
2953	8	5978	5977	5979
2954	8	5981	5980	5982
2955	8	5984	5983	5985
2956	8	5987	5986	5988
2957	8	5990	5989	5991
2958	8	5993	5992	5994
2959	8	5996	5995	5997
2960	8	5999	5998	6000
2961	8	6002	6001	6003
2962	8	6005	6004	6006
2963	8	6008	6007	6009
2964	8	6011	6010	6012
2965	8	6014	6013	6015
2966	8	6017	6016	6018
2967	8	6020	6019	6021
2968	8	6023	6022	6024
2969	8	6026	6025	6027
2970	8	6029	6028	6030
2971	8	6032	6031	6033
2972	8	6035	6034	6036
2973	8	6038	6037	6039
2974	8	6041	6040	6042
2975	8	6044	6043	6045
2976	8	6047	6046	6048
2977	8	6050	6049	6051
2978	8	6053	6052	6054
2979	8	6056	6055	6057
2980	8	6059	6058	6060
2981	8	6062	6061	6063
2982	8	6065	6064	6066
2983	8	6068	6067	6069
2984	8	6071	6070	6072
2985	8	6074	6073	6075
2986	8	6077	6076	6078
2987	8	6080	6079	6081
2988	8	6083	6082	6084
2989	8	6086	6085	6087
2990	8	6089	6088	6090
2991	8	6092	6091	6093
2992	8	6095	6094	6096
2993	8	6098	6097	6099
2994	8	6101	6100	6102
2995	8	6104	6103	6105
2996	8	6107	6106	6108
2997	8	6110	6109	6111
2998	8	6113	6112	6114
2999	8	6116	6115	6117
3000	8	6119	6118	6120
3001	8	6122	6121	6123
3002	8	6125	6124	6126
3003	8	6128	6127	6129
3004	8	6131	6130	6132
3005	8	6134	6133	6135
3006	8	6137	6136	6138
3007	8	6140	6139	6141
3008	8	6143	6142	6144
3009	8	6146	6145	6147
3010	8	6149	6148	6150
3011	8	6152	6151	6153
3012	8	6155	6154	6156
3013	8	6158	6157	6159
3014	8	6161	6160	6162
3015	8	6164	6163	6165
3016	8	6167	6166	6168
3017	8	6170	6169	6171
3018	8	6173	6172	6174
3019	8	6176	6175	6177
3020	8	6179	6178	6180
3021	8	6182	6181	6183
3022	8	6185	6184	6186
3023	8	6188	6187	6189
3024	8	6191	6190	6192
3025	8	6194	6193	6195
3026	8	6197	6196	6198
3027	8	6200	6199	6201
3028	8	6203	6202	6204
3029	8	6206	6205	6207
3030	8	6209	6208	6210
3031	8	6212	6211	6213
3032	8	6215	6214	6216
3033	8	6218	6217	6219
3034	8	6221	6220	6222
3035	8	6224	6223	6225
3036	8	6227	6226	6228
3037	8	6230	6229	6231
3038	8	6233	6232	6234
3039	8	6236	6235	6237
3040	8	6239	6238	6240
3041	8	6242	6241	6243
3042	8	6245	6244	6246
3043	8	6248	6247	6249
3044	8	6251	6250	6252
3045	8	6254	6253	6255
3046	8	6257	6256	6258
3047	8	6260	6259	6261
3048	8	6263	6262	6264
3049	8	6266	6265	6267
3050	8	6269	6268	6270
3051	8	6272	6271	6273
3052	8	6275	6274	6276
3053	8	6278	6277	6279
3054	8	6281	6280	6282
3055	8	6284	6283	6285
3056	8	6287	6286	6288
3057	8	6290	6289	6291
3058	8	6293	6292	6294
3059	8	6296	6295	6297
3060	8	6299	6298	6300
3061	8	6302	6301	6303
3062	8	6305	6304	6306
3063	8	6308	6307	6309
3064	8	6311	6310	6312
3065	8	6314	6313	6315
3066	8	6317	6316	6318
3067	8	6320	6319	6321
3068	8	6323	6322	6324
3069	8	6326	6325	6327
3070	8	6329	6328	6330
3071	8	6332	6331	6333
3072	8	6335	6334	6336

Dihedrals

1   1   127 1 2 3     # N_2 N_2 C_R H_
2   2   127 1 2 4     # N_2 N_2 C_R C_R
3   3   2 1 127 128     # C_R N_2 N_2 C_R
4   4   1 2 4 5     # N_2 C_R C_R C_R
5   4   1 2 4 11     # N_2 C_R C_R C_R
6   5   3 2 4 5     # H_ C_R C_R C_R
7   5   3 2 4 11     # H_ C_R C_R C_R
8   6   2 4 5 16     # C_R C_R C_R C_R
9   7   2 4 5 18     # C_R C_R C_R H_
10   6   11 4 5 16     # C_R C_R C_R C_R
11   7   11 4 5 18     # C_R C_R C_R H_
12   7   2 4 11 6     # C_R C_R C_R H_
13   6   2 4 11 10     # C_R C_R C_R C_R
14   7   5 4 11 6     # C_R C_R C_R H_
15   6   5 4 11 10     # C_R C_R C_R C_R
16   6   4 5 16 14     # C_R C_R C_R C_R
17   6   4 5 16 17     # C_R C_R C_R C_R
18   5   18 5 16 14     # H_ C_R C_R C_R
19   5   18 5 16 17     # H_ C_R C_R C_R
20   1   25 7 8 9     # N_2 N_2 C_R H_
21   2   25 7 8 10     # N_2 N_2 C_R C_R
22   3   8 7 25 26     # C_R N_2 N_2 C_R
23   4   7 8 10 11     # N_2 C_R C_R C_R
24   4   7 8 10 17     # N_2 C_R C_R C_R
25   5   9 8 10 11     # H_ C_R C_R C_R
26   5   9 8 10 17     # H_ C_R C_R C_R
27   6   8 10 11 4     # C_R C_R C_R C_R
28   7   8 10 11 6     # C_R C_R C_R H_
29   6   17 10 11 4     # C_R C_R C_R C_R
30   7   17 10 11 6     # C_R C_R C_R H_
31   7   8 10 17 12     # C_R C_R C_R H_
32   6   8 10 17 16     # C_R C_R C_R C_R
33   7   11 10 17 12     # C_R C_R C_R H_
34   6   11 10 17 16     # C_R C_R C_R C_R
35   1   103 13 14 15     # N_2 N_2 C_R H_
36   2   103 13 14 16     # N_2 N_2 C_R C_R
37   3   14 13 103 104     # C_R N_2 N_2 C_R
38   4   13 14 16 5     # N_2 C_R C_R C_R
39   4   13 14 16 17     # N_2 C_R C_R C_R
40   5   15 14 16 5     # H_ C_R C_R C_R
41   5   15 14 16 17     # H_ C_R C_R C_R
42   6   5 16 17 10     # C_R C_R C_R C_R
43   7   5 16 17 12     # C_R C_R C_R H_
44   6   14 16 17 10     # C_R C_R C_R C_R
45   7   14 16 17 12     # C_R C_R C_R H_
46   1   37 19 20 21     # N_2 N_2 C_R H_
47   2   37 19 20 22     # N_2 N_2 C_R C_R
48   3   20 19 37 38     # C_R N_2 N_2 C_R
49   4   19 20 22 23     # N_2 C_R C_R C_R
50   4   19 20 22 29     # N_2 C_R C_R C_R
51   5   21 20 22 23     # H_ C_R C_R C_R
52   5   21 20 22 29     # H_ C_R C_R C_R
53   6   20 22 23 34     # C_R C_R C_R C_R
54   7   20 22 23 36     # C_R C_R C_R H_
55   6   29 22 23 34     # C_R C_R C_R C_R
56   7   29 22 23 36     # C_R C_R C_R H_
57   7   20 22 29 24     # C_R C_R C_R H_
58   6   20 22 29 28     # C_R C_R C_R C_R
59   7   23 22 29 24     # C_R C_R C_R H_
60   6   23 22 29 28     # C_R C_R C_R C_R
61   6   22 23 34 32     # C_R C_R C_R C_R
62   6   22 23 34 35     # C_R C_R C_R C_R
63   5   36 23 34 32     # H_ C_R C_R C_R
64   5   36 23 34 35     # H_ C_R C_R C_R
65   1   7 25 26 27     # N_2 N_2 C_R H_
66   2   7 25 26 28     # N_2 N_2 C_R C_R
67   4   25 26 28 29     # N_2 C_R C_R C_R
68   4   25 26 28 35     # N_2 C_R C_R C_R
69   5   27 26 28 29     # H_ C_R C_R C_R
70   5   27 26 28 35     # H_ C_R C_R C_R
71   6   26 28 29 22     # C_R C_R C_R C_R
72   7   26 28 29 24     # C_R C_R C_R H_
73   6   35 28 29 22     # C_R C_R C_R C_R
74   7   35 28 29 24     # C_R C_R C_R H_
75   7   26 28 35 30     # C_R C_R C_R H_
76   6   26 28 35 34     # C_R C_R C_R C_R
77   7   29 28 35 30     # C_R C_R C_R H_
78   6   29 28 35 34     # C_R C_R C_R C_R
79   1   85 31 32 33     # N_2 N_2 C_R H_
80   2   85 31 32 34     # N_2 N_2 C_R C_R
81   3   32 31 85 86     # C_R N_2 N_2 C_R
82   4   31 32 34 23     # N_2 C_R C_R C_R
83   4   31 32 34 35     # N_2 C_R C_R C_R
84   5   33 32 34 23     # H_ C_R C_R C_R
85   5   33 32 34 35     # H_ C_R C_R C_R
86   6   23 34 35 28     # C_R C_R C_R C_R
87   7   23 34 35 30     # C_R C_R C_R H_
88   6   32 34 35 28     # C_R C_R C_R C_R
89   7   32 34 35 30     # C_R C_R C_R H_
90   1   19 37 38 39     # N_2 N_2 C_R H_
91   2   19 37 38 40     # N_2 N_2 C_R C_R
92   4   37 38 40 41     # N_2 C_R C_R C_R
93   4   37 38 40 47     # N_2 C_R C_R C_R
94   5   39 38 40 41     # H_ C_R C_R C_R
95   5   39 38 40 47     # H_ C_R C_R C_R
96   6   38 40 41 52     # C_R C_R C_R C_R
97   7   38 40 41 54     # C_R C_R C_R H_
98   6   47 40 41 52     # C_R C_R C_R C_R
99   7   47 40 41 54     # C_R C_R C_R H_
100   7   38 40 47 42     # C_R C_R C_R H_
101   6   38 40 47 46     # C_R C_R C_R C_R
102   7   41 40 47 42     # C_R C_R C_R H_
103   6   41 40 47 46     # C_R C_R C_R C_R
104   6   40 41 52 50     # C_R C_R C_R C_R
105   6   40 41 52 53     # C_R C_R C_R C_R
106   5   54 41 52 50     # H_ C_R C_R C_R
107   5   54 41 52 53     # H_ C_R C_R C_R
108   1   61 43 44 45     # N_2 N_2 C_R H_
109   2   61 43 44 46     # N_2 N_2 C_R C_R
110   3   44 43 61 62     # C_R N_2 N_2 C_R
111   4   43 44 46 47     # N_2 C_R C_R C_R
112   4   43 44 46 53     # N_2 C_R C_R C_R
113   5   45 44 46 47     # H_ C_R C_R C_R
114   5   45 44 46 53     # H_ C_R C_R C_R
115   6   44 46 47 40     # C_R C_R C_R C_R
116   7   44 46 47 42     # C_R C_R C_R H_
117   6   53 46 47 40     # C_R C_R C_R C_R
118   7   53 46 47 42     # C_R C_R C_R H_
119   7   44 46 53 48     # C_R C_R C_R H_
120   6   44 46 53 52     # C_R C_R C_R C_R
121   7   47 46 53 48     # C_R C_R C_R H_
122   6   47 46 53 52     # C_R C_R C_R C_R
123   1   139 49 50 51     # N_2 N_2 C_R H_
124   2   139 49 50 52     # N_2 N_2 C_R C_R
125   3   50 49 139 140     # C_R N_2 N_2 C_R
126   4   49 50 52 41     # N_2 C_R C_R C_R
127   4   49 50 52 53     # N_2 C_R C_R C_R
128   5   51 50 52 41     # H_ C_R C_R C_R
129   5   51 50 52 53     # H_ C_R C_R C_R
130   6   41 52 53 46     # C_R C_R C_R C_R
131   7   41 52 53 48     # C_R C_R C_R H_
132   6   50 52 53 46     # C_R C_R C_R C_R
133   7   50 52 53 48     # C_R C_R C_R H_
134   1   73 55 56 57     # N_2 N_2 C_R H_
135   2   73 55 56 58     # N_2 N_2 C_R C_R
136   3   56 55 73 74     # C_R N_2 N_2 C_R
137   4   55 56 58 59     # N_2 C_R C_R C_R
138   4   55 56 58 65     # N_2 C_R C_R C_R
139   5   57 56 58 59     # H_ C_R C_R C_R
140   5   57 56 58 65     # H_ C_R C_R C_R
141   6   56 58 59 70     # C_R C_R C_R C_R
142   7   56 58 59 72     # C_R C_R C_R H_
143   6   65 58 59 70     # C_R C_R C_R C_R
144   7   65 58 59 72     # C_R C_R C_R H_
145   7   56 58 65 60     # C_R C_R C_R H_
146   6   56 58 65 64     # C_R C_R C_R C_R
147   7   59 58 65 60     # C_R C_R C_R H_
148   6   59 58 65 64     # C_R C_R C_R C_R
149   6   58 59 70 68     # C_R C_R C_R C_R
150   6   58 59 70 71     # C_R C_R C_R C_R
151   5   72 59 70 68     # H_ C_R C_R C_R
152   5   72 59 70 71     # H_ C_R C_R C_R
153   1   43 61 62 63     # N_2 N_2 C_R H_
154   2   43 61 62 64     # N_2 N_2 C_R C_R
155   4   61 62 64 65     # N_2 C_R C_R C_R
156   4   61 62 64 71     # N_2 C_R C_R C_R
157   5   63 62 64 65     # H_ C_R C_R C_R
158   5   63 62 64 71     # H_ C_R C_R C_R
159   6   62 64 65 58     # C_R C_R C_R C_R
160   7   62 64 65 60     # C_R C_R C_R H_
161   6   71 64 65 58     # C_R C_R C_R C_R
162   7   71 64 65 60     # C_R C_R C_R H_
163   7   62 64 71 66     # C_R C_R C_R H_
164   6   62 64 71 70     # C_R C_R C_R C_R
165   7   65 64 71 66     # C_R C_R C_R H_
166   6   65 64 71 70     # C_R C_R C_R C_R
167   1   121 67 68 69     # N_2 N_2 C_R H_
168   2   121 67 68 70     # N_2 N_2 C_R C_R
169   3   68 67 121 122     # C_R N_2 N_2 C_R
170   4   67 68 70 59     # N_2 C_R C_R C_R
171   4   67 68 70 71     # N_2 C_R C_R C_R
172   5   69 68 70 59     # H_ C_R C_R C_R
173   5   69 68 70 71     # H_ C_R C_R C_R
174   6   59 70 71 64     # C_R C_R C_R C_R
175   7   59 70 71 66     # C_R C_R C_R H_
176   6   68 70 71 64     # C_R C_R C_R C_R
177   7   68 70 71 66     # C_R C_R C_R H_
178   1   55 73 74 75     # N_2 N_2 C_R H_
179   2   55 73 74 76     # N_2 N_2 C_R C_R
180   4   73 74 76 77     # N_2 C_R C_R C_R
181   4   73 74 76 83     # N_2 C_R C_R C_R
182   5   75 74 76 77     # H_ C_R C_R C_R
183   5   75 74 76 83     # H_ C_R C_R C_R
184   6   74 76 77 88     # C_R C_R C_R C_R
185   7   74 76 77 90     # C_R C_R C_R H_
186   6   83 76 77 88     # C_R C_R C_R C_R
187   7   83 76 77 90     # C_R C_R C_R H_
188   7   74 76 83 78     # C_R C_R C_R H_
189   6   74 76 83 82     # C_R C_R C_R C_R
190   7   77 76 83 78     # C_R C_R C_R H_
191   6   77 76 83 82     # C_R C_R C_R C_R
192   6   76 77 88 86     # C_R C_R C_R C_R
193   6   76 77 88 89     # C_R C_R C_R C_R
194   5   90 77 88 86     # H_ C_R C_R C_R
195   5   90 77 88 89     # H_ C_R C_R C_R
196   1   97 79 80 81     # N_2 N_2 C_R H_
197   2   97 79 80 82     # N_2 N_2 C_R C_R
198   3   80 79 97 98     # C_R N_2 N_2 C_R
199   4   79 80 82 83     # N_2 C_R C_R C_R
200   4   79 80 82 89     # N_2 C_R C_R C_R
201   5   81 80 82 83     # H_ C_R C_R C_R
202   5   81 80 82 89     # H_ C_R C_R C_R
203   6   80 82 83 76     # C_R C_R C_R C_R
204   7   80 82 83 78     # C_R C_R C_R H_
205   6   89 82 83 76     # C_R C_R C_R C_R
206   7   89 82 83 78     # C_R C_R C_R H_
207   7   80 82 89 84     # C_R C_R C_R H_
208   6   80 82 89 88     # C_R C_R C_R C_R
209   7   83 82 89 84     # C_R C_R C_R H_
210   6   83 82 89 88     # C_R C_R C_R C_R
211   1   31 85 86 87     # N_2 N_2 C_R H_
212   2   31 85 86 88     # N_2 N_2 C_R C_R
213   4   85 86 88 77     # N_2 C_R C_R C_R
214   4   85 86 88 89     # N_2 C_R C_R C_R
215   5   87 86 88 77     # H_ C_R C_R C_R
216   5   87 86 88 89     # H_ C_R C_R C_R
217   6   77 88 89 82     # C_R C_R C_R C_R
218   7   77 88 89 84     # C_R C_R C_R H_
219   6   86 88 89 82     # C_R C_R C_R C_R
220   7   86 88 89 84     # C_R C_R C_R H_
221   1   109 91 92 93     # N_2 N_2 C_R H_
222   2   109 91 92 94     # N_2 N_2 C_R C_R
223   3   92 91 109 110     # C_R N_2 N_2 C_R
224   4   91 92 94 95     # N_2 C_R C_R C_R
225   4   91 92 94 101     # N_2 C_R C_R C_R
226   5   93 92 94 95     # H_ C_R C_R C_R
227   5   93 92 94 101     # H_ C_R C_R C_R
228   6   92 94 95 106     # C_R C_R C_R C_R
229   7   92 94 95 108     # C_R C_R C_R H_
230   6   101 94 95 106     # C_R C_R C_R C_R
231   7   101 94 95 108     # C_R C_R C_R H_
232   7   92 94 101 96     # C_R C_R C_R H_
233   6   92 94 101 100     # C_R C_R C_R C_R
234   7   95 94 101 96     # C_R C_R C_R H_
235   6   95 94 101 100     # C_R C_R C_R C_R
236   6   94 95 106 104     # C_R C_R C_R C_R
237   6   94 95 106 107     # C_R C_R C_R C_R
238   5   108 95 106 104     # H_ C_R C_R C_R
239   5   108 95 106 107     # H_ C_R C_R C_R
240   1   79 97 98 99     # N_2 N_2 C_R H_
241   2   79 97 98 100     # N_2 N_2 C_R C_R
242   4   97 98 100 101     # N_2 C_R C_R C_R
243   4   97 98 100 107     # N_2 C_R C_R C_R
244   5   99 98 100 101     # H_ C_R C_R C_R
245   5   99 98 100 107     # H_ C_R C_R C_R
246   6   98 100 101 94     # C_R C_R C_R C_R
247   7   98 100 101 96     # C_R C_R C_R H_
248   6   107 100 101 94     # C_R C_R C_R C_R
249   7   107 100 101 96     # C_R C_R C_R H_
250   7   98 100 107 102     # C_R C_R C_R H_
251   6   98 100 107 106     # C_R C_R C_R C_R
252   7   101 100 107 102     # C_R C_R C_R H_
253   6   101 100 107 106     # C_R C_R C_R C_R
254   1   13 103 104 105     # N_2 N_2 C_R H_
255   2   13 103 104 106     # N_2 N_2 C_R C_R
256   4   103 104 106 95     # N_2 C_R C_R C_R
257   4   103 104 106 107     # N_2 C_R C_R C_R
258   5   105 104 106 95     # H_ C_R C_R C_R
259   5   105 104 106 107     # H_ C_R C_R C_R
260   6   95 106 107 100     # C_R C_R C_R C_R
261   7   95 106 107 102     # C_R C_R C_R H_
262   6   104 106 107 100     # C_R C_R C_R C_R
263   7   104 106 107 102     # C_R C_R C_R H_
264   1   91 109 110 111     # N_2 N_2 C_R H_
265   2   91 109 110 112     # N_2 N_2 C_R C_R
266   4   109 110 112 113     # N_2 C_R C_R C_R
267   4   109 110 112 119     # N_2 C_R C_R C_R
268   5   111 110 112 113     # H_ C_R C_R C_R
269   5   111 110 112 119     # H_ C_R C_R C_R
270   6   110 112 113 124     # C_R C_R C_R C_R
271   7   110 112 113 126     # C_R C_R C_R H_
272   6   119 112 113 124     # C_R C_R C_R C_R
273   7   119 112 113 126     # C_R C_R C_R H_
274   7   110 112 119 114     # C_R C_R C_R H_
275   6   110 112 119 118     # C_R C_R C_R C_R
276   7   113 112 119 114     # C_R C_R C_R H_
277   6   113 112 119 118     # C_R C_R C_R C_R
278   6   112 113 124 122     # C_R C_R C_R C_R
279   6   112 113 124 125     # C_R C_R C_R C_R
280   5   126 113 124 122     # H_ C_R C_R C_R
281   5   126 113 124 125     # H_ C_R C_R C_R
282   1   133 115 116 117     # N_2 N_2 C_R H_
283   2   133 115 116 118     # N_2 N_2 C_R C_R
284   3   116 115 133 134     # C_R N_2 N_2 C_R
285   4   115 116 118 119     # N_2 C_R C_R C_R
286   4   115 116 118 125     # N_2 C_R C_R C_R
287   5   117 116 118 119     # H_ C_R C_R C_R
288   5   117 116 118 125     # H_ C_R C_R C_R
289   6   116 118 119 112     # C_R C_R C_R C_R
290   7   116 118 119 114     # C_R C_R C_R H_
291   6   125 118 119 112     # C_R C_R C_R C_R
292   7   125 118 119 114     # C_R C_R C_R H_
293   7   116 118 125 120     # C_R C_R C_R H_
294   6   116 118 125 124     # C_R C_R C_R C_R
295   7   119 118 125 120     # C_R C_R C_R H_
296   6   119 118 125 124     # C_R C_R C_R C_R
297   1   67 121 122 123     # N_2 N_2 C_R H_
298   2   67 121 122 124     # N_2 N_2 C_R C_R
299   4   121 122 124 113     # N_2 C_R C_R C_R
300   4   121 122 124 125     # N_2 C_R C_R C_R
301   5   123 122 124 113     # H_ C_R C_R C_R
302   5   123 122 124 125     # H_ C_R C_R C_R
303   6   113 124 125 118     # C_R C_R C_R C_R
304   7   113 124 125 120     # C_R C_R C_R H_
305   6   122 124 125 118     # C_R C_R C_R C_R
306   7   122 124 125 120     # C_R C_R C_R H_
307   1   1 127 128 129     # N_2 N_2 C_R H_
308   2   1 127 128 130     # N_2 N_2 C_R C_R
309   4   127 128 130 131     # N_2 C_R C_R C_R
310   4   127 128 130 137     # N_2 C_R C_R C_R
311   5   129 128 130 131     # H_ C_R C_R C_R
312   5   129 128 130 137     # H_ C_R C_R C_R
313   6   128 130 131 142     # C_R C_R C_R C_R
314   7   128 130 131 144     # C_R C_R C_R H_
315   6   137 130 131 142     # C_R C_R C_R C_R
316   7   137 130 131 144     # C_R C_R C_R H_
317   7   128 130 137 132     # C_R C_R C_R H_
318   6   128 130 137 136     # C_R C_R C_R C_R
319   7   131 130 137 132     # C_R C_R C_R H_
320   6   131 130 137 136     # C_R C_R C_R C_R
321   6   130 131 142 140     # C_R C_R C_R C_R
322   6   130 131 142 143     # C_R C_R C_R C_R
323   5   144 131 142 140     # H_ C_R C_R C_R
324   5   144 131 142 143     # H_ C_R C_R C_R
325   1   115 133 134 135     # N_2 N_2 C_R H_
326   2   115 133 134 136     # N_2 N_2 C_R C_R
327   4   133 134 136 137     # N_2 C_R C_R C_R
328   4   133 134 136 143     # N_2 C_R C_R C_R
329   5   135 134 136 137     # H_ C_R C_R C_R
330   5   135 134 136 143     # H_ C_R C_R C_R
331   6   134 136 137 130     # C_R C_R C_R C_R
332   7   134 136 137 132     # C_R C_R C_R H_
333   6   143 136 137 130     # C_R C_R C_R C_R
334   7   143 136 137 132     # C_R C_R C_R H_
335   7   134 136 143 138     # C_R C_R C_R H_
336   6   134 136 143 142     # C_R C_R C_R C_R
337   7   137 136 143 138     # C_R C_R C_R H_
338   6   137 136 143 142     # C_R C_R C_R C_R
339   1   49 139 140 141     # N_2 N_2 C_R H_
340   2   49 139 140 142     # N_2 N_2 C_R C_R
341   4   139 140 142 131     # N_2 C_R C_R C_R
342   4   139 140 142 143     # N_2 C_R C_R C_R
343   5   141 140 142 131     # H_ C_R C_R C_R
344   5   141 140 142 143     # H_ C_R C_R C_R
345   6   131 142 143 136     # C_R C_R C_R C_R
346   7   131 142 143 138     # C_R C_R C_R H_
347   6   140 142 143 136     # C_R C_R C_R C_R
348   7   140 142 143 138     # C_R C_R C_R H_
349   1   271 145 146 147     # N_2 N_2 C_R H_
350   2   271 145 146 148     # N_2 N_2 C_R C_R
351   3   146 145 271 272     # C_R N_2 N_2 C_R
352   4   145 146 148 149     # N_2 C_R C_R C_R
353   4   145 146 148 155     # N_2 C_R C_R C_R
354   5   147 146 148 149     # H_ C_R C_R C_R
355   5   147 146 148 155     # H_ C_R C_R C_R
356   6   146 148 149 160     # C_R C_R C_R C_R
357   7   146 148 149 162     # C_R C_R C_R H_
358   6   155 148 149 160     # C_R C_R C_R C_R
359   7   155 148 149 162     # C_R C_R C_R H_
360   7   146 148 155 150     # C_R C_R C_R H_
361   6   146 148 155 154     # C_R C_R C_R C_R
362   7   149 148 155 150     # C_R C_R C_R H_
363   6   149 148 155 154     # C_R C_R C_R C_R
364   6   148 149 160 158     # C_R C_R C_R C_R
365   6   148 149 160 161     # C_R C_R C_R C_R
366   5   162 149 160 158     # H_ C_R C_R C_R
367   5   162 149 160 161     # H_ C_R C_R C_R
368   1   169 151 152 153     # N_2 N_2 C_R H_
369   2   169 151 152 154     # N_2 N_2 C_R C_R
370   3   152 151 169 170     # C_R N_2 N_2 C_R
371   4   151 152 154 155     # N_2 C_R C_R C_R
372   4   151 152 154 161     # N_2 C_R C_R C_R
373   5   153 152 154 155     # H_ C_R C_R C_R
374   5   153 152 154 161     # H_ C_R C_R C_R
375   6   152 154 155 148     # C_R C_R C_R C_R
376   7   152 154 155 150     # C_R C_R C_R H_
377   6   161 154 155 148     # C_R C_R C_R C_R
378   7   161 154 155 150     # C_R C_R C_R H_
379   7   152 154 161 156     # C_R C_R C_R H_
380   6   152 154 161 160     # C_R C_R C_R C_R
381   7   155 154 161 156     # C_R C_R C_R H_
382   6   155 154 161 160     # C_R C_R C_R C_R
383   1   247 157 158 159     # N_2 N_2 C_R H_
384   2   247 157 158 160     # N_2 N_2 C_R C_R
385   3   158 157 247 248     # C_R N_2 N_2 C_R
386   4   157 158 160 149     # N_2 C_R C_R C_R
387   4   157 158 160 161     # N_2 C_R C_R C_R
388   5   159 158 160 149     # H_ C_R C_R C_R
389   5   159 158 160 161     # H_ C_R C_R C_R
390   6   149 160 161 154     # C_R C_R C_R C_R
391   7   149 160 161 156     # C_R C_R C_R H_
392   6   158 160 161 154     # C_R C_R C_R C_R
393   7   158 160 161 156     # C_R C_R C_R H_
394   1   181 163 164 165     # N_2 N_2 C_R H_
395   2   181 163 164 166     # N_2 N_2 C_R C_R
396   3   164 163 181 182     # C_R N_2 N_2 C_R
397   4   163 164 166 167     # N_2 C_R C_R C_R
398   4   163 164 166 173     # N_2 C_R C_R C_R
399   5   165 164 166 167     # H_ C_R C_R C_R
400   5   165 164 166 173     # H_ C_R C_R C_R
401   6   164 166 167 178     # C_R C_R C_R C_R
402   7   164 166 167 180     # C_R C_R C_R H_
403   6   173 166 167 178     # C_R C_R C_R C_R
404   7   173 166 167 180     # C_R C_R C_R H_
405   7   164 166 173 168     # C_R C_R C_R H_
406   6   164 166 173 172     # C_R C_R C_R C_R
407   7   167 166 173 168     # C_R C_R C_R H_
408   6   167 166 173 172     # C_R C_R C_R C_R
409   6   166 167 178 176     # C_R C_R C_R C_R
410   6   166 167 178 179     # C_R C_R C_R C_R
411   5   180 167 178 176     # H_ C_R C_R C_R
412   5   180 167 178 179     # H_ C_R C_R C_R
413   1   151 169 170 171     # N_2 N_2 C_R H_
414   2   151 169 170 172     # N_2 N_2 C_R C_R
415   4   169 170 172 173     # N_2 C_R C_R C_R
416   4   169 170 172 179     # N_2 C_R C_R C_R
417   5   171 170 172 173     # H_ C_R C_R C_R
418   5   171 170 172 179     # H_ C_R C_R C_R
419   6   170 172 173 166     # C_R C_R C_R C_R
420   7   170 172 173 168     # C_R C_R C_R H_
421   6   179 172 173 166     # C_R C_R C_R C_R
422   7   179 172 173 168     # C_R C_R C_R H_
423   7   170 172 179 174     # C_R C_R C_R H_
424   6   170 172 179 178     # C_R C_R C_R C_R
425   7   173 172 179 174     # C_R C_R C_R H_
426   6   173 172 179 178     # C_R C_R C_R C_R
427   1   229 175 176 177     # N_2 N_2 C_R H_
428   2   229 175 176 178     # N_2 N_2 C_R C_R
429   3   176 175 229 230     # C_R N_2 N_2 C_R
430   4   175 176 178 167     # N_2 C_R C_R C_R
431   4   175 176 178 179     # N_2 C_R C_R C_R
432   5   177 176 178 167     # H_ C_R C_R C_R
433   5   177 176 178 179     # H_ C_R C_R C_R
434   6   167 178 179 172     # C_R C_R C_R C_R
435   7   167 178 179 174     # C_R C_R C_R H_
436   6   176 178 179 172     # C_R C_R C_R C_R
437   7   176 178 179 174     # C_R C_R C_R H_
438   1   163 181 182 183     # N_2 N_2 C_R H_
439   2   163 181 182 184     # N_2 N_2 C_R C_R
440   4   181 182 184 185     # N_2 C_R C_R C_R
441   4   181 182 184 191     # N_2 C_R C_R C_R
442   5   183 182 184 185     # H_ C_R C_R C_R
443   5   183 182 184 191     # H_ C_R C_R C_R
444   6   182 184 185 196     # C_R C_R C_R C_R
445   7   182 184 185 198     # C_R C_R C_R H_
446   6   191 184 185 196     # C_R C_R C_R C_R
447   7   191 184 185 198     # C_R C_R C_R H_
448   7   182 184 191 186     # C_R C_R C_R H_
449   6   182 184 191 190     # C_R C_R C_R C_R
450   7   185 184 191 186     # C_R C_R C_R H_
451   6   185 184 191 190     # C_R C_R C_R C_R
452   6   184 185 196 194     # C_R C_R C_R C_R
453   6   184 185 196 197     # C_R C_R C_R C_R
454   5   198 185 196 194     # H_ C_R C_R C_R
455   5   198 185 196 197     # H_ C_R C_R C_R
456   1   205 187 188 189     # N_2 N_2 C_R H_
457   2   205 187 188 190     # N_2 N_2 C_R C_R
458   3   188 187 205 206     # C_R N_2 N_2 C_R
459   4   187 188 190 191     # N_2 C_R C_R C_R
460   4   187 188 190 197     # N_2 C_R C_R C_R
461   5   189 188 190 191     # H_ C_R C_R C_R
462   5   189 188 190 197     # H_ C_R C_R C_R
463   6   188 190 191 184     # C_R C_R C_R C_R
464   7   188 190 191 186     # C_R C_R C_R H_
465   6   197 190 191 184     # C_R C_R C_R C_R
466   7   197 190 191 186     # C_R C_R C_R H_
467   7   188 190 197 192     # C_R C_R C_R H_
468   6   188 190 197 196     # C_R C_R C_R C_R
469   7   191 190 197 192     # C_R C_R C_R H_
470   6   191 190 197 196     # C_R C_R C_R C_R
471   1   283 193 194 195     # N_2 N_2 C_R H_
472   2   283 193 194 196     # N_2 N_2 C_R C_R
473   3   194 193 283 284     # C_R N_2 N_2 C_R
474   4   193 194 196 185     # N_2 C_R C_R C_R
475   4   193 194 196 197     # N_2 C_R C_R C_R
476   5   195 194 196 185     # H_ C_R C_R C_R
477   5   195 194 196 197     # H_ C_R C_R C_R
478   6   185 196 197 190     # C_R C_R C_R C_R
479   7   185 196 197 192     # C_R C_R C_R H_
480   6   194 196 197 190     # C_R C_R C_R C_R
481   7   194 196 197 192     # C_R C_R C_R H_
482   1   217 199 200 201     # N_2 N_2 C_R H_
483   2   217 199 200 202     # N_2 N_2 C_R C_R
484   3   200 199 217 218     # C_R N_2 N_2 C_R
485   4   199 200 202 203     # N_2 C_R C_R C_R
486   4   199 200 202 209     # N_2 C_R C_R C_R
487   5   201 200 202 203     # H_ C_R C_R C_R
488   5   201 200 202 209     # H_ C_R C_R C_R
489   6   200 202 203 214     # C_R C_R C_R C_R
490   7   200 202 203 216     # C_R C_R C_R H_
491   6   209 202 203 214     # C_R C_R C_R C_R
492   7   209 202 203 216     # C_R C_R C_R H_
493   7   200 202 209 204     # C_R C_R C_R H_
494   6   200 202 209 208     # C_R C_R C_R C_R
495   7   203 202 209 204     # C_R C_R C_R H_
496   6   203 202 209 208     # C_R C_R C_R C_R
497   6   202 203 214 212     # C_R C_R C_R C_R
498   6   202 203 214 215     # C_R C_R C_R C_R
499   5   216 203 214 212     # H_ C_R C_R C_R
500   5   216 203 214 215     # H_ C_R C_R C_R
501   1   187 205 206 207     # N_2 N_2 C_R H_
502   2   187 205 206 208     # N_2 N_2 C_R C_R
503   4   205 206 208 209     # N_2 C_R C_R C_R
504   4   205 206 208 215     # N_2 C_R C_R C_R
505   5   207 206 208 209     # H_ C_R C_R C_R
506   5   207 206 208 215     # H_ C_R C_R C_R
507   6   206 208 209 202     # C_R C_R C_R C_R
508   7   206 208 209 204     # C_R C_R C_R H_
509   6   215 208 209 202     # C_R C_R C_R C_R
510   7   215 208 209 204     # C_R C_R C_R H_
511   7   206 208 215 210     # C_R C_R C_R H_
512   6   206 208 215 214     # C_R C_R C_R C_R
513   7   209 208 215 210     # C_R C_R C_R H_
514   6   209 208 215 214     # C_R C_R C_R C_R
515   1   265 211 212 213     # N_2 N_2 C_R H_
516   2   265 211 212 214     # N_2 N_2 C_R C_R
517   3   212 211 265 266     # C_R N_2 N_2 C_R
518   4   211 212 214 203     # N_2 C_R C_R C_R
519   4   211 212 214 215     # N_2 C_R C_R C_R
520   5   213 212 214 203     # H_ C_R C_R C_R
521   5   213 212 214 215     # H_ C_R C_R C_R
522   6   203 214 215 208     # C_R C_R C_R C_R
523   7   203 214 215 210     # C_R C_R C_R H_
524   6   212 214 215 208     # C_R C_R C_R C_R
525   7   212 214 215 210     # C_R C_R C_R H_
526   1   199 217 218 219     # N_2 N_2 C_R H_
527   2   199 217 218 220     # N_2 N_2 C_R C_R
528   4   217 218 220 221     # N_2 C_R C_R C_R
529   4   217 218 220 227     # N_2 C_R C_R C_R
530   5   219 218 220 221     # H_ C_R C_R C_R
531   5   219 218 220 227     # H_ C_R C_R C_R
532   6   218 220 221 232     # C_R C_R C_R C_R
533   7   218 220 221 234     # C_R C_R C_R H_
534   6   227 220 221 232     # C_R C_R C_R C_R
535   7   227 220 221 234     # C_R C_R C_R H_
536   7   218 220 227 222     # C_R C_R C_R H_
537   6   218 220 227 226     # C_R C_R C_R C_R
538   7   221 220 227 222     # C_R C_R C_R H_
539   6   221 220 227 226     # C_R C_R C_R C_R
540   6   220 221 232 230     # C_R C_R C_R C_R
541   6   220 221 232 233     # C_R C_R C_R C_R
542   5   234 221 232 230     # H_ C_R C_R C_R
543   5   234 221 232 233     # H_ C_R C_R C_R
544   1   241 223 224 225     # N_2 N_2 C_R H_
545   2   241 223 224 226     # N_2 N_2 C_R C_R
546   3   224 223 241 242     # C_R N_2 N_2 C_R
547   4   223 224 226 227     # N_2 C_R C_R C_R
548   4   223 224 226 233     # N_2 C_R C_R C_R
549   5   225 224 226 227     # H_ C_R C_R C_R
550   5   225 224 226 233     # H_ C_R C_R C_R
551   6   224 226 227 220     # C_R C_R C_R C_R
552   7   224 226 227 222     # C_R C_R C_R H_
553   6   233 226 227 220     # C_R C_R C_R C_R
554   7   233 226 227 222     # C_R C_R C_R H_
555   7   224 226 233 228     # C_R C_R C_R H_
556   6   224 226 233 232     # C_R C_R C_R C_R
557   7   227 226 233 228     # C_R C_R C_R H_
558   6   227 226 233 232     # C_R C_R C_R C_R
559   1   175 229 230 231     # N_2 N_2 C_R H_
560   2   175 229 230 232     # N_2 N_2 C_R C_R
561   4   229 230 232 221     # N_2 C_R C_R C_R
562   4   229 230 232 233     # N_2 C_R C_R C_R
563   5   231 230 232 221     # H_ C_R C_R C_R
564   5   231 230 232 233     # H_ C_R C_R C_R
565   6   221 232 233 226     # C_R C_R C_R C_R
566   7   221 232 233 228     # C_R C_R C_R H_
567   6   230 232 233 226     # C_R C_R C_R C_R
568   7   230 232 233 228     # C_R C_R C_R H_
569   1   253 235 236 237     # N_2 N_2 C_R H_
570   2   253 235 236 238     # N_2 N_2 C_R C_R
571   3   236 235 253 254     # C_R N_2 N_2 C_R
572   4   235 236 238 239     # N_2 C_R C_R C_R
573   4   235 236 238 245     # N_2 C_R C_R C_R
574   5   237 236 238 239     # H_ C_R C_R C_R
575   5   237 236 238 245     # H_ C_R C_R C_R
576   6   236 238 239 250     # C_R C_R C_R C_R
577   7   236 238 239 252     # C_R C_R C_R H_
578   6   245 238 239 250     # C_R C_R C_R C_R
579   7   245 238 239 252     # C_R C_R C_R H_
580   7   236 238 245 240     # C_R C_R C_R H_
581   6   236 238 245 244     # C_R C_R C_R C_R
582   7   239 238 245 240     # C_R C_R C_R H_
583   6   239 238 245 244     # C_R C_R C_R C_R
584   6   238 239 250 248     # C_R C_R C_R C_R
585   6   238 239 250 251     # C_R C_R C_R C_R
586   5   252 239 250 248     # H_ C_R C_R C_R
587   5   252 239 250 251     # H_ C_R C_R C_R
588   1   223 241 242 243     # N_2 N_2 C_R H_
589   2   223 241 242 244     # N_2 N_2 C_R C_R
590   4   241 242 244 245     # N_2 C_R C_R C_R
591   4   241 242 244 251     # N_2 C_R C_R C_R
592   5   243 242 244 245     # H_ C_R C_R C_R
593   5   243 242 244 251     # H_ C_R C_R C_R
594   6   242 244 245 238     # C_R C_R C_R C_R
595   7   242 244 245 240     # C_R C_R C_R H_
596   6   251 244 245 238     # C_R C_R C_R C_R
597   7   251 244 245 240     # C_R C_R C_R H_
598   7   242 244 251 246     # C_R C_R C_R H_
599   6   242 244 251 250     # C_R C_R C_R C_R
600   7   245 244 251 246     # C_R C_R C_R H_
601   6   245 244 251 250     # C_R C_R C_R C_R
602   1   157 247 248 249     # N_2 N_2 C_R H_
603   2   157 247 248 250     # N_2 N_2 C_R C_R
604   4   247 248 250 239     # N_2 C_R C_R C_R
605   4   247 248 250 251     # N_2 C_R C_R C_R
606   5   249 248 250 239     # H_ C_R C_R C_R
607   5   249 248 250 251     # H_ C_R C_R C_R
608   6   239 250 251 244     # C_R C_R C_R C_R
609   7   239 250 251 246     # C_R C_R C_R H_
610   6   248 250 251 244     # C_R C_R C_R C_R
611   7   248 250 251 246     # C_R C_R C_R H_
612   1   235 253 254 255     # N_2 N_2 C_R H_
613   2   235 253 254 256     # N_2 N_2 C_R C_R
614   4   253 254 256 257     # N_2 C_R C_R C_R
615   4   253 254 256 263     # N_2 C_R C_R C_R
616   5   255 254 256 257     # H_ C_R C_R C_R
617   5   255 254 256 263     # H_ C_R C_R C_R
618   6   254 256 257 268     # C_R C_R C_R C_R
619   7   254 256 257 270     # C_R C_R C_R H_
620   6   263 256 257 268     # C_R C_R C_R C_R
621   7   263 256 257 270     # C_R C_R C_R H_
622   7   254 256 263 258     # C_R C_R C_R H_
623   6   254 256 263 262     # C_R C_R C_R C_R
624   7   257 256 263 258     # C_R C_R C_R H_
625   6   257 256 263 262     # C_R C_R C_R C_R
626   6   256 257 268 266     # C_R C_R C_R C_R
627   6   256 257 268 269     # C_R C_R C_R C_R
628   5   270 257 268 266     # H_ C_R C_R C_R
629   5   270 257 268 269     # H_ C_R C_R C_R
630   1   277 259 260 261     # N_2 N_2 C_R H_
631   2   277 259 260 262     # N_2 N_2 C_R C_R
632   3   260 259 277 278     # C_R N_2 N_2 C_R
633   4   259 260 262 263     # N_2 C_R C_R C_R
634   4   259 260 262 269     # N_2 C_R C_R C_R
635   5   261 260 262 263     # H_ C_R C_R C_R
636   5   261 260 262 269     # H_ C_R C_R C_R
637   6   260 262 263 256     # C_R C_R C_R C_R
638   7   260 262 263 258     # C_R C_R C_R H_
639   6   269 262 263 256     # C_R C_R C_R C_R
640   7   269 262 263 258     # C_R C_R C_R H_
641   7   260 262 269 264     # C_R C_R C_R H_
642   6   260 262 269 268     # C_R C_R C_R C_R
643   7   263 262 269 264     # C_R C_R C_R H_
644   6   263 262 269 268     # C_R C_R C_R C_R
645   1   211 265 266 267     # N_2 N_2 C_R H_
646   2   211 265 266 268     # N_2 N_2 C_R C_R
647   4   265 266 268 257     # N_2 C_R C_R C_R
648   4   265 266 268 269     # N_2 C_R C_R C_R
649   5   267 266 268 257     # H_ C_R C_R C_R
650   5   267 266 268 269     # H_ C_R C_R C_R
651   6   257 268 269 262     # C_R C_R C_R C_R
652   7   257 268 269 264     # C_R C_R C_R H_
653   6   266 268 269 262     # C_R C_R C_R C_R
654   7   266 268 269 264     # C_R C_R C_R H_
655   1   145 271 272 273     # N_2 N_2 C_R H_
656   2   145 271 272 274     # N_2 N_2 C_R C_R
657   4   271 272 274 275     # N_2 C_R C_R C_R
658   4   271 272 274 281     # N_2 C_R C_R C_R
659   5   273 272 274 275     # H_ C_R C_R C_R
660   5   273 272 274 281     # H_ C_R C_R C_R
661   6   272 274 275 286     # C_R C_R C_R C_R
662   7   272 274 275 288     # C_R C_R C_R H_
663   6   281 274 275 286     # C_R C_R C_R C_R
664   7   281 274 275 288     # C_R C_R C_R H_
665   7   272 274 281 276     # C_R C_R C_R H_
666   6   272 274 281 280     # C_R C_R C_R C_R
667   7   275 274 281 276     # C_R C_R C_R H_
668   6   275 274 281 280     # C_R C_R C_R C_R
669   6   274 275 286 284     # C_R C_R C_R C_R
670   6   274 275 286 287     # C_R C_R C_R C_R
671   5   288 275 286 284     # H_ C_R C_R C_R
672   5   288 275 286 287     # H_ C_R C_R C_R
673   1   259 277 278 279     # N_2 N_2 C_R H_
674   2   259 277 278 280     # N_2 N_2 C_R C_R
675   4   277 278 280 281     # N_2 C_R C_R C_R
676   4   277 278 280 287     # N_2 C_R C_R C_R
677   5   279 278 280 281     # H_ C_R C_R C_R
678   5   279 278 280 287     # H_ C_R C_R C_R
679   6   278 280 281 274     # C_R C_R C_R C_R
680   7   278 280 281 276     # C_R C_R C_R H_
681   6   287 280 281 274     # C_R C_R C_R C_R
682   7   287 280 281 276     # C_R C_R C_R H_
683   7   278 280 287 282     # C_R C_R C_R H_
684   6   278 280 287 286     # C_R C_R C_R C_R
685   7   281 280 287 282     # C_R C_R C_R H_
686   6   281 280 287 286     # C_R C_R C_R C_R
687   1   193 283 284 285     # N_2 N_2 C_R H_
688   2   193 283 284 286     # N_2 N_2 C_R C_R
689   4   283 284 286 275     # N_2 C_R C_R C_R
690   4   283 284 286 287     # N_2 C_R C_R C_R
691   5   285 284 286 275     # H_ C_R C_R C_R
692   5   285 284 286 287     # H_ C_R C_R C_R
693   6   275 286 287 280     # C_R C_R C_R C_R
694   7   275 286 287 282     # C_R C_R C_R H_
695   6   284 286 287 280     # C_R C_R C_R C_R
696   7   284 286 287 282     # C_R C_R C_R H_
697   1   415 289 290 291     # N_2 N_2 C_R H_
698   2   415 289 290 292     # N_2 N_2 C_R C_R
699   3   290 289 415 416     # C_R N_2 N_2 C_R
700   4   289 290 292 293     # N_2 C_R C_R C_R
701   4   289 290 292 299     # N_2 C_R C_R C_R
702   5   291 290 292 293     # H_ C_R C_R C_R
703   5   291 290 292 299     # H_ C_R C_R C_R
704   6   290 292 293 304     # C_R C_R C_R C_R
705   7   290 292 293 306     # C_R C_R C_R H_
706   6   299 292 293 304     # C_R C_R C_R C_R
707   7   299 292 293 306     # C_R C_R C_R H_
708   7   290 292 299 294     # C_R C_R C_R H_
709   6   290 292 299 298     # C_R C_R C_R C_R
710   7   293 292 299 294     # C_R C_R C_R H_
711   6   293 292 299 298     # C_R C_R C_R C_R
712   6   292 293 304 302     # C_R C_R C_R C_R
713   6   292 293 304 305     # C_R C_R C_R C_R
714   5   306 293 304 302     # H_ C_R C_R C_R
715   5   306 293 304 305     # H_ C_R C_R C_R
716   1   313 295 296 297     # N_2 N_2 C_R H_
717   2   313 295 296 298     # N_2 N_2 C_R C_R
718   3   296 295 313 314     # C_R N_2 N_2 C_R
719   4   295 296 298 299     # N_2 C_R C_R C_R
720   4   295 296 298 305     # N_2 C_R C_R C_R
721   5   297 296 298 299     # H_ C_R C_R C_R
722   5   297 296 298 305     # H_ C_R C_R C_R
723   6   296 298 299 292     # C_R C_R C_R C_R
724   7   296 298 299 294     # C_R C_R C_R H_
725   6   305 298 299 292     # C_R C_R C_R C_R
726   7   305 298 299 294     # C_R C_R C_R H_
727   7   296 298 305 300     # C_R C_R C_R H_
728   6   296 298 305 304     # C_R C_R C_R C_R
729   7   299 298 305 300     # C_R C_R C_R H_
730   6   299 298 305 304     # C_R C_R C_R C_R
731   1   391 301 302 303     # N_2 N_2 C_R H_
732   2   391 301 302 304     # N_2 N_2 C_R C_R
733   3   302 301 391 392     # C_R N_2 N_2 C_R
734   4   301 302 304 293     # N_2 C_R C_R C_R
735   4   301 302 304 305     # N_2 C_R C_R C_R
736   5   303 302 304 293     # H_ C_R C_R C_R
737   5   303 302 304 305     # H_ C_R C_R C_R
738   6   293 304 305 298     # C_R C_R C_R C_R
739   7   293 304 305 300     # C_R C_R C_R H_
740   6   302 304 305 298     # C_R C_R C_R C_R
741   7   302 304 305 300     # C_R C_R C_R H_
742   1   325 307 308 309     # N_2 N_2 C_R H_
743   2   325 307 308 310     # N_2 N_2 C_R C_R
744   3   308 307 325 326     # C_R N_2 N_2 C_R
745   4   307 308 310 311     # N_2 C_R C_R C_R
746   4   307 308 310 317     # N_2 C_R C_R C_R
747   5   309 308 310 311     # H_ C_R C_R C_R
748   5   309 308 310 317     # H_ C_R C_R C_R
749   6   308 310 311 322     # C_R C_R C_R C_R
750   7   308 310 311 324     # C_R C_R C_R H_
751   6   317 310 311 322     # C_R C_R C_R C_R
752   7   317 310 311 324     # C_R C_R C_R H_
753   7   308 310 317 312     # C_R C_R C_R H_
754   6   308 310 317 316     # C_R C_R C_R C_R
755   7   311 310 317 312     # C_R C_R C_R H_
756   6   311 310 317 316     # C_R C_R C_R C_R
757   6   310 311 322 320     # C_R C_R C_R C_R
758   6   310 311 322 323     # C_R C_R C_R C_R
759   5   324 311 322 320     # H_ C_R C_R C_R
760   5   324 311 322 323     # H_ C_R C_R C_R
761   1   295 313 314 315     # N_2 N_2 C_R H_
762   2   295 313 314 316     # N_2 N_2 C_R C_R
763   4   313 314 316 317     # N_2 C_R C_R C_R
764   4   313 314 316 323     # N_2 C_R C_R C_R
765   5   315 314 316 317     # H_ C_R C_R C_R
766   5   315 314 316 323     # H_ C_R C_R C_R
767   6   314 316 317 310     # C_R C_R C_R C_R
768   7   314 316 317 312     # C_R C_R C_R H_
769   6   323 316 317 310     # C_R C_R C_R C_R
770   7   323 316 317 312     # C_R C_R C_R H_
771   7   314 316 323 318     # C_R C_R C_R H_
772   6   314 316 323 322     # C_R C_R C_R C_R
773   7   317 316 323 318     # C_R C_R C_R H_
774   6   317 316 323 322     # C_R C_R C_R C_R
775   1   373 319 320 321     # N_2 N_2 C_R H_
776   2   373 319 320 322     # N_2 N_2 C_R C_R
777   3   320 319 373 374     # C_R N_2 N_2 C_R
778   4   319 320 322 311     # N_2 C_R C_R C_R
779   4   319 320 322 323     # N_2 C_R C_R C_R
780   5   321 320 322 311     # H_ C_R C_R C_R
781   5   321 320 322 323     # H_ C_R C_R C_R
782   6   311 322 323 316     # C_R C_R C_R C_R
783   7   311 322 323 318     # C_R C_R C_R H_
784   6   320 322 323 316     # C_R C_R C_R C_R
785   7   320 322 323 318     # C_R C_R C_R H_
786   1   307 325 326 327     # N_2 N_2 C_R H_
787   2   307 325 326 328     # N_2 N_2 C_R C_R
788   4   325 326 328 329     # N_2 C_R C_R C_R
789   4   325 326 328 335     # N_2 C_R C_R C_R
790   5   327 326 328 329     # H_ C_R C_R C_R
791   5   327 326 328 335     # H_ C_R C_R C_R
792   6   326 328 329 340     # C_R C_R C_R C_R
793   7   326 328 329 342     # C_R C_R C_R H_
794   6   335 328 329 340     # C_R C_R C_R C_R
795   7   335 328 329 342     # C_R C_R C_R H_
796   7   326 328 335 330     # C_R C_R C_R H_
797   6   326 328 335 334     # C_R C_R C_R C_R
798   7   329 328 335 330     # C_R C_R C_R H_
799   6   329 328 335 334     # C_R C_R C_R C_R
800   6   328 329 340 338     # C_R C_R C_R C_R
801   6   328 329 340 341     # C_R C_R C_R C_R
802   5   342 329 340 338     # H_ C_R C_R C_R
803   5   342 329 340 341     # H_ C_R C_R C_R
804   1   349 331 332 333     # N_2 N_2 C_R H_
805   2   349 331 332 334     # N_2 N_2 C_R C_R
806   3   332 331 349 350     # C_R N_2 N_2 C_R
807   4   331 332 334 335     # N_2 C_R C_R C_R
808   4   331 332 334 341     # N_2 C_R C_R C_R
809   5   333 332 334 335     # H_ C_R C_R C_R
810   5   333 332 334 341     # H_ C_R C_R C_R
811   6   332 334 335 328     # C_R C_R C_R C_R
812   7   332 334 335 330     # C_R C_R C_R H_
813   6   341 334 335 328     # C_R C_R C_R C_R
814   7   341 334 335 330     # C_R C_R C_R H_
815   7   332 334 341 336     # C_R C_R C_R H_
816   6   332 334 341 340     # C_R C_R C_R C_R
817   7   335 334 341 336     # C_R C_R C_R H_
818   6   335 334 341 340     # C_R C_R C_R C_R
819   1   427 337 338 339     # N_2 N_2 C_R H_
820   2   427 337 338 340     # N_2 N_2 C_R C_R
821   3   338 337 427 428     # C_R N_2 N_2 C_R
822   4   337 338 340 329     # N_2 C_R C_R C_R
823   4   337 338 340 341     # N_2 C_R C_R C_R
824   5   339 338 340 329     # H_ C_R C_R C_R
825   5   339 338 340 341     # H_ C_R C_R C_R
826   6   329 340 341 334     # C_R C_R C_R C_R
827   7   329 340 341 336     # C_R C_R C_R H_
828   6   338 340 341 334     # C_R C_R C_R C_R
829   7   338 340 341 336     # C_R C_R C_R H_
830   1   361 343 344 345     # N_2 N_2 C_R H_
831   2   361 343 344 346     # N_2 N_2 C_R C_R
832   3   344 343 361 362     # C_R N_2 N_2 C_R
833   4   343 344 346 347     # N_2 C_R C_R C_R
834   4   343 344 346 353     # N_2 C_R C_R C_R
835   5   345 344 346 347     # H_ C_R C_R C_R
836   5   345 344 346 353     # H_ C_R C_R C_R
837   6   344 346 347 358     # C_R C_R C_R C_R
838   7   344 346 347 360     # C_R C_R C_R H_
839   6   353 346 347 358     # C_R C_R C_R C_R
840   7   353 346 347 360     # C_R C_R C_R H_
841   7   344 346 353 348     # C_R C_R C_R H_
842   6   344 346 353 352     # C_R C_R C_R C_R
843   7   347 346 353 348     # C_R C_R C_R H_
844   6   347 346 353 352     # C_R C_R C_R C_R
845   6   346 347 358 356     # C_R C_R C_R C_R
846   6   346 347 358 359     # C_R C_R C_R C_R
847   5   360 347 358 356     # H_ C_R C_R C_R
848   5   360 347 358 359     # H_ C_R C_R C_R
849   1   331 349 350 351     # N_2 N_2 C_R H_
850   2   331 349 350 352     # N_2 N_2 C_R C_R
851   4   349 350 352 353     # N_2 C_R C_R C_R
852   4   349 350 352 359     # N_2 C_R C_R C_R
853   5   351 350 352 353     # H_ C_R C_R C_R
854   5   351 350 352 359     # H_ C_R C_R C_R
855   6   350 352 353 346     # C_R C_R C_R C_R
856   7   350 352 353 348     # C_R C_R C_R H_
857   6   359 352 353 346     # C_R C_R C_R C_R
858   7   359 352 353 348     # C_R C_R C_R H_
859   7   350 352 359 354     # C_R C_R C_R H_
860   6   350 352 359 358     # C_R C_R C_R C_R
861   7   353 352 359 354     # C_R C_R C_R H_
862   6   353 352 359 358     # C_R C_R C_R C_R
863   1   409 355 356 357     # N_2 N_2 C_R H_
864   2   409 355 356 358     # N_2 N_2 C_R C_R
865   3   356 355 409 410     # C_R N_2 N_2 C_R
866   4   355 356 358 347     # N_2 C_R C_R C_R
867   4   355 356 358 359     # N_2 C_R C_R C_R
868   5   357 356 358 347     # H_ C_R C_R C_R
869   5   357 356 358 359     # H_ C_R C_R C_R
870   6   347 358 359 352     # C_R C_R C_R C_R
871   7   347 358 359 354     # C_R C_R C_R H_
872   6   356 358 359 352     # C_R C_R C_R C_R
873   7   356 358 359 354     # C_R C_R C_R H_
874   1   343 361 362 363     # N_2 N_2 C_R H_
875   2   343 361 362 364     # N_2 N_2 C_R C_R
876   4   361 362 364 365     # N_2 C_R C_R C_R
877   4   361 362 364 371     # N_2 C_R C_R C_R
878   5   363 362 364 365     # H_ C_R C_R C_R
879   5   363 362 364 371     # H_ C_R C_R C_R
880   6   362 364 365 376     # C_R C_R C_R C_R
881   7   362 364 365 378     # C_R C_R C_R H_
882   6   371 364 365 376     # C_R C_R C_R C_R
883   7   371 364 365 378     # C_R C_R C_R H_
884   7   362 364 371 366     # C_R C_R C_R H_
885   6   362 364 371 370     # C_R C_R C_R C_R
886   7   365 364 371 366     # C_R C_R C_R H_
887   6   365 364 371 370     # C_R C_R C_R C_R
888   6   364 365 376 374     # C_R C_R C_R C_R
889   6   364 365 376 377     # C_R C_R C_R C_R
890   5   378 365 376 374     # H_ C_R C_R C_R
891   5   378 365 376 377     # H_ C_R C_R C_R
892   1   385 367 368 369     # N_2 N_2 C_R H_
893   2   385 367 368 370     # N_2 N_2 C_R C_R
894   3   368 367 385 386     # C_R N_2 N_2 C_R
895   4   367 368 370 371     # N_2 C_R C_R C_R
896   4   367 368 370 377     # N_2 C_R C_R C_R
897   5   369 368 370 371     # H_ C_R C_R C_R
898   5   369 368 370 377     # H_ C_R C_R C_R
899   6   368 370 371 364     # C_R C_R C_R C_R
900   7   368 370 371 366     # C_R C_R C_R H_
901   6   377 370 371 364     # C_R C_R C_R C_R
902   7   377 370 371 366     # C_R C_R C_R H_
903   7   368 370 377 372     # C_R C_R C_R H_
904   6   368 370 377 376     # C_R C_R C_R C_R
905   7   371 370 377 372     # C_R C_R C_R H_
906   6   371 370 377 376     # C_R C_R C_R C_R
907   1   319 373 374 375     # N_2 N_2 C_R H_
908   2   319 373 374 376     # N_2 N_2 C_R C_R
909   4   373 374 376 365     # N_2 C_R C_R C_R
910   4   373 374 376 377     # N_2 C_R C_R C_R
911   5   375 374 376 365     # H_ C_R C_R C_R
912   5   375 374 376 377     # H_ C_R C_R C_R
913   6   365 376 377 370     # C_R C_R C_R C_R
914   7   365 376 377 372     # C_R C_R C_R H_
915   6   374 376 377 370     # C_R C_R C_R C_R
916   7   374 376 377 372     # C_R C_R C_R H_
917   1   397 379 380 381     # N_2 N_2 C_R H_
918   2   397 379 380 382     # N_2 N_2 C_R C_R
919   3   380 379 397 398     # C_R N_2 N_2 C_R
920   4   379 380 382 383     # N_2 C_R C_R C_R
921   4   379 380 382 389     # N_2 C_R C_R C_R
922   5   381 380 382 383     # H_ C_R C_R C_R
923   5   381 380 382 389     # H_ C_R C_R C_R
924   6   380 382 383 394     # C_R C_R C_R C_R
925   7   380 382 383 396     # C_R C_R C_R H_
926   6   389 382 383 394     # C_R C_R C_R C_R
927   7   389 382 383 396     # C_R C_R C_R H_
928   7   380 382 389 384     # C_R C_R C_R H_
929   6   380 382 389 388     # C_R C_R C_R C_R
930   7   383 382 389 384     # C_R C_R C_R H_
931   6   383 382 389 388     # C_R C_R C_R C_R
932   6   382 383 394 392     # C_R C_R C_R C_R
933   6   382 383 394 395     # C_R C_R C_R C_R
934   5   396 383 394 392     # H_ C_R C_R C_R
935   5   396 383 394 395     # H_ C_R C_R C_R
936   1   367 385 386 387     # N_2 N_2 C_R H_
937   2   367 385 386 388     # N_2 N_2 C_R C_R
938   4   385 386 388 389     # N_2 C_R C_R C_R
939   4   385 386 388 395     # N_2 C_R C_R C_R
940   5   387 386 388 389     # H_ C_R C_R C_R
941   5   387 386 388 395     # H_ C_R C_R C_R
942   6   386 388 389 382     # C_R C_R C_R C_R
943   7   386 388 389 384     # C_R C_R C_R H_
944   6   395 388 389 382     # C_R C_R C_R C_R
945   7   395 388 389 384     # C_R C_R C_R H_
946   7   386 388 395 390     # C_R C_R C_R H_
947   6   386 388 395 394     # C_R C_R C_R C_R
948   7   389 388 395 390     # C_R C_R C_R H_
949   6   389 388 395 394     # C_R C_R C_R C_R
950   1   301 391 392 393     # N_2 N_2 C_R H_
951   2   301 391 392 394     # N_2 N_2 C_R C_R
952   4   391 392 394 383     # N_2 C_R C_R C_R
953   4   391 392 394 395     # N_2 C_R C_R C_R
954   5   393 392 394 383     # H_ C_R C_R C_R
955   5   393 392 394 395     # H_ C_R C_R C_R
956   6   383 394 395 388     # C_R C_R C_R C_R
957   7   383 394 395 390     # C_R C_R C_R H_
958   6   392 394 395 388     # C_R C_R C_R C_R
959   7   392 394 395 390     # C_R C_R C_R H_
960   1   379 397 398 399     # N_2 N_2 C_R H_
961   2   379 397 398 400     # N_2 N_2 C_R C_R
962   4   397 398 400 401     # N_2 C_R C_R C_R
963   4   397 398 400 407     # N_2 C_R C_R C_R
964   5   399 398 400 401     # H_ C_R C_R C_R
965   5   399 398 400 407     # H_ C_R C_R C_R
966   6   398 400 401 412     # C_R C_R C_R C_R
967   7   398 400 401 414     # C_R C_R C_R H_
968   6   407 400 401 412     # C_R C_R C_R C_R
969   7   407 400 401 414     # C_R C_R C_R H_
970   7   398 400 407 402     # C_R C_R C_R H_
971   6   398 400 407 406     # C_R C_R C_R C_R
972   7   401 400 407 402     # C_R C_R C_R H_
973   6   401 400 407 406     # C_R C_R C_R C_R
974   6   400 401 412 410     # C_R C_R C_R C_R
975   6   400 401 412 413     # C_R C_R C_R C_R
976   5   414 401 412 410     # H_ C_R C_R C_R
977   5   414 401 412 413     # H_ C_R C_R C_R
978   1   421 403 404 405     # N_2 N_2 C_R H_
979   2   421 403 404 406     # N_2 N_2 C_R C_R
980   3   404 403 421 422     # C_R N_2 N_2 C_R
981   4   403 404 406 407     # N_2 C_R C_R C_R
982   4   403 404 406 413     # N_2 C_R C_R C_R
983   5   405 404 406 407     # H_ C_R C_R C_R
984   5   405 404 406 413     # H_ C_R C_R C_R
985   6   404 406 407 400     # C_R C_R C_R C_R
986   7   404 406 407 402     # C_R C_R C_R H_
987   6   413 406 407 400     # C_R C_R C_R C_R
988   7   413 406 407 402     # C_R C_R C_R H_
989   7   404 406 413 408     # C_R C_R C_R H_
990   6   404 406 413 412     # C_R C_R C_R C_R
991   7   407 406 413 408     # C_R C_R C_R H_
992   6   407 406 413 412     # C_R C_R C_R C_R
993   1   355 409 410 411     # N_2 N_2 C_R H_
994   2   355 409 410 412     # N_2 N_2 C_R C_R
995   4   409 410 412 401     # N_2 C_R C_R C_R
996   4   409 410 412 413     # N_2 C_R C_R C_R
997   5   411 410 412 401     # H_ C_R C_R C_R
998   5   411 410 412 413     # H_ C_R C_R C_R
999   6   401 412 413 406     # C_R C_R C_R C_R
1000   7   401 412 413 408     # C_R C_R C_R H_
1001   6   410 412 413 406     # C_R C_R C_R C_R
1002   7   410 412 413 408     # C_R C_R C_R H_
1003   1   289 415 416 417     # N_2 N_2 C_R H_
1004   2   289 415 416 418     # N_2 N_2 C_R C_R
1005   4   415 416 418 419     # N_2 C_R C_R C_R
1006   4   415 416 418 425     # N_2 C_R C_R C_R
1007   5   417 416 418 419     # H_ C_R C_R C_R
1008   5   417 416 418 425     # H_ C_R C_R C_R
1009   6   416 418 419 430     # C_R C_R C_R C_R
1010   7   416 418 419 432     # C_R C_R C_R H_
1011   6   425 418 419 430     # C_R C_R C_R C_R
1012   7   425 418 419 432     # C_R C_R C_R H_
1013   7   416 418 425 420     # C_R C_R C_R H_
1014   6   416 418 425 424     # C_R C_R C_R C_R
1015   7   419 418 425 420     # C_R C_R C_R H_
1016   6   419 418 425 424     # C_R C_R C_R C_R
1017   6   418 419 430 428     # C_R C_R C_R C_R
1018   6   418 419 430 431     # C_R C_R C_R C_R
1019   5   432 419 430 428     # H_ C_R C_R C_R
1020   5   432 419 430 431     # H_ C_R C_R C_R
1021   1   403 421 422 423     # N_2 N_2 C_R H_
1022   2   403 421 422 424     # N_2 N_2 C_R C_R
1023   4   421 422 424 425     # N_2 C_R C_R C_R
1024   4   421 422 424 431     # N_2 C_R C_R C_R
1025   5   423 422 424 425     # H_ C_R C_R C_R
1026   5   423 422 424 431     # H_ C_R C_R C_R
1027   6   422 424 425 418     # C_R C_R C_R C_R
1028   7   422 424 425 420     # C_R C_R C_R H_
1029   6   431 424 425 418     # C_R C_R C_R C_R
1030   7   431 424 425 420     # C_R C_R C_R H_
1031   7   422 424 431 426     # C_R C_R C_R H_
1032   6   422 424 431 430     # C_R C_R C_R C_R
1033   7   425 424 431 426     # C_R C_R C_R H_
1034   6   425 424 431 430     # C_R C_R C_R C_R
1035   1   337 427 428 429     # N_2 N_2 C_R H_
1036   2   337 427 428 430     # N_2 N_2 C_R C_R
1037   4   427 428 430 419     # N_2 C_R C_R C_R
1038   4   427 428 430 431     # N_2 C_R C_R C_R
1039   5   429 428 430 419     # H_ C_R C_R C_R
1040   5   429 428 430 431     # H_ C_R C_R C_R
1041   6   419 430 431 424     # C_R C_R C_R C_R
1042   7   419 430 431 426     # C_R C_R C_R H_
1043   6   428 430 431 424     # C_R C_R C_R C_R
1044   7   428 430 431 426     # C_R C_R C_R H_
1045   1   559 433 434 435     # N_2 N_2 C_R H_
1046   2   559 433 434 436     # N_2 N_2 C_R C_R
1047   3   434 433 559 560     # C_R N_2 N_2 C_R
1048   4   433 434 436 437     # N_2 C_R C_R C_R
1049   4   433 434 436 443     # N_2 C_R C_R C_R
1050   5   435 434 436 437     # H_ C_R C_R C_R
1051   5   435 434 436 443     # H_ C_R C_R C_R
1052   6   434 436 437 448     # C_R C_R C_R C_R
1053   7   434 436 437 450     # C_R C_R C_R H_
1054   6   443 436 437 448     # C_R C_R C_R C_R
1055   7   443 436 437 450     # C_R C_R C_R H_
1056   7   434 436 443 438     # C_R C_R C_R H_
1057   6   434 436 443 442     # C_R C_R C_R C_R
1058   7   437 436 443 438     # C_R C_R C_R H_
1059   6   437 436 443 442     # C_R C_R C_R C_R
1060   6   436 437 448 446     # C_R C_R C_R C_R
1061   6   436 437 448 449     # C_R C_R C_R C_R
1062   5   450 437 448 446     # H_ C_R C_R C_R
1063   5   450 437 448 449     # H_ C_R C_R C_R
1064   1   457 439 440 441     # N_2 N_2 C_R H_
1065   2   457 439 440 442     # N_2 N_2 C_R C_R
1066   3   440 439 457 458     # C_R N_2 N_2 C_R
1067   4   439 440 442 443     # N_2 C_R C_R C_R
1068   4   439 440 442 449     # N_2 C_R C_R C_R
1069   5   441 440 442 443     # H_ C_R C_R C_R
1070   5   441 440 442 449     # H_ C_R C_R C_R
1071   6   440 442 443 436     # C_R C_R C_R C_R
1072   7   440 442 443 438     # C_R C_R C_R H_
1073   6   449 442 443 436     # C_R C_R C_R C_R
1074   7   449 442 443 438     # C_R C_R C_R H_
1075   7   440 442 449 444     # C_R C_R C_R H_
1076   6   440 442 449 448     # C_R C_R C_R C_R
1077   7   443 442 449 444     # C_R C_R C_R H_
1078   6   443 442 449 448     # C_R C_R C_R C_R
1079   1   535 445 446 447     # N_2 N_2 C_R H_
1080   2   535 445 446 448     # N_2 N_2 C_R C_R
1081   3   446 445 535 536     # C_R N_2 N_2 C_R
1082   4   445 446 448 437     # N_2 C_R C_R C_R
1083   4   445 446 448 449     # N_2 C_R C_R C_R
1084   5   447 446 448 437     # H_ C_R C_R C_R
1085   5   447 446 448 449     # H_ C_R C_R C_R
1086   6   437 448 449 442     # C_R C_R C_R C_R
1087   7   437 448 449 444     # C_R C_R C_R H_
1088   6   446 448 449 442     # C_R C_R C_R C_R
1089   7   446 448 449 444     # C_R C_R C_R H_
1090   1   469 451 452 453     # N_2 N_2 C_R H_
1091   2   469 451 452 454     # N_2 N_2 C_R C_R
1092   3   452 451 469 470     # C_R N_2 N_2 C_R
1093   4   451 452 454 455     # N_2 C_R C_R C_R
1094   4   451 452 454 461     # N_2 C_R C_R C_R
1095   5   453 452 454 455     # H_ C_R C_R C_R
1096   5   453 452 454 461     # H_ C_R C_R C_R
1097   6   452 454 455 466     # C_R C_R C_R C_R
1098   7   452 454 455 468     # C_R C_R C_R H_
1099   6   461 454 455 466     # C_R C_R C_R C_R
1100   7   461 454 455 468     # C_R C_R C_R H_
1101   7   452 454 461 456     # C_R C_R C_R H_
1102   6   452 454 461 460     # C_R C_R C_R C_R
1103   7   455 454 461 456     # C_R C_R C_R H_
1104   6   455 454 461 460     # C_R C_R C_R C_R
1105   6   454 455 466 464     # C_R C_R C_R C_R
1106   6   454 455 466 467     # C_R C_R C_R C_R
1107   5   468 455 466 464     # H_ C_R C_R C_R
1108   5   468 455 466 467     # H_ C_R C_R C_R
1109   1   439 457 458 459     # N_2 N_2 C_R H_
1110   2   439 457 458 460     # N_2 N_2 C_R C_R
1111   4   457 458 460 461     # N_2 C_R C_R C_R
1112   4   457 458 460 467     # N_2 C_R C_R C_R
1113   5   459 458 460 461     # H_ C_R C_R C_R
1114   5   459 458 460 467     # H_ C_R C_R C_R
1115   6   458 460 461 454     # C_R C_R C_R C_R
1116   7   458 460 461 456     # C_R C_R C_R H_
1117   6   467 460 461 454     # C_R C_R C_R C_R
1118   7   467 460 461 456     # C_R C_R C_R H_
1119   7   458 460 467 462     # C_R C_R C_R H_
1120   6   458 460 467 466     # C_R C_R C_R C_R
1121   7   461 460 467 462     # C_R C_R C_R H_
1122   6   461 460 467 466     # C_R C_R C_R C_R
1123   1   517 463 464 465     # N_2 N_2 C_R H_
1124   2   517 463 464 466     # N_2 N_2 C_R C_R
1125   3   464 463 517 518     # C_R N_2 N_2 C_R
1126   4   463 464 466 455     # N_2 C_R C_R C_R
1127   4   463 464 466 467     # N_2 C_R C_R C_R
1128   5   465 464 466 455     # H_ C_R C_R C_R
1129   5   465 464 466 467     # H_ C_R C_R C_R
1130   6   455 466 467 460     # C_R C_R C_R C_R
1131   7   455 466 467 462     # C_R C_R C_R H_
1132   6   464 466 467 460     # C_R C_R C_R C_R
1133   7   464 466 467 462     # C_R C_R C_R H_
1134   1   451 469 470 471     # N_2 N_2 C_R H_
1135   2   451 469 470 472     # N_2 N_2 C_R C_R
1136   4   469 470 472 473     # N_2 C_R C_R C_R
1137   4   469 470 472 479     # N_2 C_R C_R C_R
1138   5   471 470 472 473     # H_ C_R C_R C_R
1139   5   471 470 472 479     # H_ C_R C_R C_R
1140   6   470 472 473 484     # C_R C_R C_R C_R
1141   7   470 472 473 486     # C_R C_R C_R H_
1142   6   479 472 473 484     # C_R C_R C_R C_R
1143   7   479 472 473 486     # C_R C_R C_R H_
1144   7   470 472 479 474     # C_R C_R C_R H_
1145   6   470 472 479 478     # C_R C_R C_R C_R
1146   7   473 472 479 474     # C_R C_R C_R H_
1147   6   473 472 479 478     # C_R C_R C_R C_R
1148   6   472 473 484 482     # C_R C_R C_R C_R
1149   6   472 473 484 485     # C_R C_R C_R C_R
1150   5   486 473 484 482     # H_ C_R C_R C_R
1151   5   486 473 484 485     # H_ C_R C_R C_R
1152   1   493 475 476 477     # N_2 N_2 C_R H_
1153   2   493 475 476 478     # N_2 N_2 C_R C_R
1154   3   476 475 493 494     # C_R N_2 N_2 C_R
1155   4   475 476 478 479     # N_2 C_R C_R C_R
1156   4   475 476 478 485     # N_2 C_R C_R C_R
1157   5   477 476 478 479     # H_ C_R C_R C_R
1158   5   477 476 478 485     # H_ C_R C_R C_R
1159   6   476 478 479 472     # C_R C_R C_R C_R
1160   7   476 478 479 474     # C_R C_R C_R H_
1161   6   485 478 479 472     # C_R C_R C_R C_R
1162   7   485 478 479 474     # C_R C_R C_R H_
1163   7   476 478 485 480     # C_R C_R C_R H_
1164   6   476 478 485 484     # C_R C_R C_R C_R
1165   7   479 478 485 480     # C_R C_R C_R H_
1166   6   479 478 485 484     # C_R C_R C_R C_R
1167   1   571 481 482 483     # N_2 N_2 C_R H_
1168   2   571 481 482 484     # N_2 N_2 C_R C_R
1169   3   482 481 571 572     # C_R N_2 N_2 C_R
1170   4   481 482 484 473     # N_2 C_R C_R C_R
1171   4   481 482 484 485     # N_2 C_R C_R C_R
1172   5   483 482 484 473     # H_ C_R C_R C_R
1173   5   483 482 484 485     # H_ C_R C_R C_R
1174   6   473 484 485 478     # C_R C_R C_R C_R
1175   7   473 484 485 480     # C_R C_R C_R H_
1176   6   482 484 485 478     # C_R C_R C_R C_R
1177   7   482 484 485 480     # C_R C_R C_R H_
1178   1   505 487 488 489     # N_2 N_2 C_R H_
1179   2   505 487 488 490     # N_2 N_2 C_R C_R
1180   3   488 487 505 506     # C_R N_2 N_2 C_R
1181   4   487 488 490 491     # N_2 C_R C_R C_R
1182   4   487 488 490 497     # N_2 C_R C_R C_R
1183   5   489 488 490 491     # H_ C_R C_R C_R
1184   5   489 488 490 497     # H_ C_R C_R C_R
1185   6   488 490 491 502     # C_R C_R C_R C_R
1186   7   488 490 491 504     # C_R C_R C_R H_
1187   6   497 490 491 502     # C_R C_R C_R C_R
1188   7   497 490 491 504     # C_R C_R C_R H_
1189   7   488 490 497 492     # C_R C_R C_R H_
1190   6   488 490 497 496     # C_R C_R C_R C_R
1191   7   491 490 497 492     # C_R C_R C_R H_
1192   6   491 490 497 496     # C_R C_R C_R C_R
1193   6   490 491 502 500     # C_R C_R C_R C_R
1194   6   490 491 502 503     # C_R C_R C_R C_R
1195   5   504 491 502 500     # H_ C_R C_R C_R
1196   5   504 491 502 503     # H_ C_R C_R C_R
1197   1   475 493 494 495     # N_2 N_2 C_R H_
1198   2   475 493 494 496     # N_2 N_2 C_R C_R
1199   4   493 494 496 497     # N_2 C_R C_R C_R
1200   4   493 494 496 503     # N_2 C_R C_R C_R
1201   5   495 494 496 497     # H_ C_R C_R C_R
1202   5   495 494 496 503     # H_ C_R C_R C_R
1203   6   494 496 497 490     # C_R C_R C_R C_R
1204   7   494 496 497 492     # C_R C_R C_R H_
1205   6   503 496 497 490     # C_R C_R C_R C_R
1206   7   503 496 497 492     # C_R C_R C_R H_
1207   7   494 496 503 498     # C_R C_R C_R H_
1208   6   494 496 503 502     # C_R C_R C_R C_R
1209   7   497 496 503 498     # C_R C_R C_R H_
1210   6   497 496 503 502     # C_R C_R C_R C_R
1211   1   553 499 500 501     # N_2 N_2 C_R H_
1212   2   553 499 500 502     # N_2 N_2 C_R C_R
1213   3   500 499 553 554     # C_R N_2 N_2 C_R
1214   4   499 500 502 491     # N_2 C_R C_R C_R
1215   4   499 500 502 503     # N_2 C_R C_R C_R
1216   5   501 500 502 491     # H_ C_R C_R C_R
1217   5   501 500 502 503     # H_ C_R C_R C_R
1218   6   491 502 503 496     # C_R C_R C_R C_R
1219   7   491 502 503 498     # C_R C_R C_R H_
1220   6   500 502 503 496     # C_R C_R C_R C_R
1221   7   500 502 503 498     # C_R C_R C_R H_
1222   1   487 505 506 507     # N_2 N_2 C_R H_
1223   2   487 505 506 508     # N_2 N_2 C_R C_R
1224   4   505 506 508 509     # N_2 C_R C_R C_R
1225   4   505 506 508 515     # N_2 C_R C_R C_R
1226   5   507 506 508 509     # H_ C_R C_R C_R
1227   5   507 506 508 515     # H_ C_R C_R C_R
1228   6   506 508 509 520     # C_R C_R C_R C_R
1229   7   506 508 509 522     # C_R C_R C_R H_
1230   6   515 508 509 520     # C_R C_R C_R C_R
1231   7   515 508 509 522     # C_R C_R C_R H_
1232   7   506 508 515 510     # C_R C_R C_R H_
1233   6   506 508 515 514     # C_R C_R C_R C_R
1234   7   509 508 515 510     # C_R C_R C_R H_
1235   6   509 508 515 514     # C_R C_R C_R C_R
1236   6   508 509 520 518     # C_R C_R C_R C_R
1237   6   508 509 520 521     # C_R C_R C_R C_R
1238   5   522 509 520 518     # H_ C_R C_R C_R
1239   5   522 509 520 521     # H_ C_R C_R C_R
1240   1   529 511 512 513     # N_2 N_2 C_R H_
1241   2   529 511 512 514     # N_2 N_2 C_R C_R
1242   3   512 511 529 530     # C_R N_2 N_2 C_R
1243   4   511 512 514 515     # N_2 C_R C_R C_R
1244   4   511 512 514 521     # N_2 C_R C_R C_R
1245   5   513 512 514 515     # H_ C_R C_R C_R
1246   5   513 512 514 521     # H_ C_R C_R C_R
1247   6   512 514 515 508     # C_R C_R C_R C_R
1248   7   512 514 515 510     # C_R C_R C_R H_
1249   6   521 514 515 508     # C_R C_R C_R C_R
1250   7   521 514 515 510     # C_R C_R C_R H_
1251   7   512 514 521 516     # C_R C_R C_R H_
1252   6   512 514 521 520     # C_R C_R C_R C_R
1253   7   515 514 521 516     # C_R C_R C_R H_
1254   6   515 514 521 520     # C_R C_R C_R C_R
1255   1   463 517 518 519     # N_2 N_2 C_R H_
1256   2   463 517 518 520     # N_2 N_2 C_R C_R
1257   4   517 518 520 509     # N_2 C_R C_R C_R
1258   4   517 518 520 521     # N_2 C_R C_R C_R
1259   5   519 518 520 509     # H_ C_R C_R C_R
1260   5   519 518 520 521     # H_ C_R C_R C_R
1261   6   509 520 521 514     # C_R C_R C_R C_R
1262   7   509 520 521 516     # C_R C_R C_R H_
1263   6   518 520 521 514     # C_R C_R C_R C_R
1264   7   518 520 521 516     # C_R C_R C_R H_
1265   1   541 523 524 525     # N_2 N_2 C_R H_
1266   2   541 523 524 526     # N_2 N_2 C_R C_R
1267   3   524 523 541 542     # C_R N_2 N_2 C_R
1268   4   523 524 526 527     # N_2 C_R C_R C_R
1269   4   523 524 526 533     # N_2 C_R C_R C_R
1270   5   525 524 526 527     # H_ C_R C_R C_R
1271   5   525 524 526 533     # H_ C_R C_R C_R
1272   6   524 526 527 538     # C_R C_R C_R C_R
1273   7   524 526 527 540     # C_R C_R C_R H_
1274   6   533 526 527 538     # C_R C_R C_R C_R
1275   7   533 526 527 540     # C_R C_R C_R H_
1276   7   524 526 533 528     # C_R C_R C_R H_
1277   6   524 526 533 532     # C_R C_R C_R C_R
1278   7   527 526 533 528     # C_R C_R C_R H_
1279   6   527 526 533 532     # C_R C_R C_R C_R
1280   6   526 527 538 536     # C_R C_R C_R C_R
1281   6   526 527 538 539     # C_R C_R C_R C_R
1282   5   540 527 538 536     # H_ C_R C_R C_R
1283   5   540 527 538 539     # H_ C_R C_R C_R
1284   1   511 529 530 531     # N_2 N_2 C_R H_
1285   2   511 529 530 532     # N_2 N_2 C_R C_R
1286   4   529 530 532 533     # N_2 C_R C_R C_R
1287   4   529 530 532 539     # N_2 C_R C_R C_R
1288   5   531 530 532 533     # H_ C_R C_R C_R
1289   5   531 530 532 539     # H_ C_R C_R C_R
1290   6   530 532 533 526     # C_R C_R C_R C_R
1291   7   530 532 533 528     # C_R C_R C_R H_
1292   6   539 532 533 526     # C_R C_R C_R C_R
1293   7   539 532 533 528     # C_R C_R C_R H_
1294   7   530 532 539 534     # C_R C_R C_R H_
1295   6   530 532 539 538     # C_R C_R C_R C_R
1296   7   533 532 539 534     # C_R C_R C_R H_
1297   6   533 532 539 538     # C_R C_R C_R C_R
1298   1   445 535 536 537     # N_2 N_2 C_R H_
1299   2   445 535 536 538     # N_2 N_2 C_R C_R
1300   4   535 536 538 527     # N_2 C_R C_R C_R
1301   4   535 536 538 539     # N_2 C_R C_R C_R
1302   5   537 536 538 527     # H_ C_R C_R C_R
1303   5   537 536 538 539     # H_ C_R C_R C_R
1304   6   527 538 539 532     # C_R C_R C_R C_R
1305   7   527 538 539 534     # C_R C_R C_R H_
1306   6   536 538 539 532     # C_R C_R C_R C_R
1307   7   536 538 539 534     # C_R C_R C_R H_
1308   1   523 541 542 543     # N_2 N_2 C_R H_
1309   2   523 541 542 544     # N_2 N_2 C_R C_R
1310   4   541 542 544 545     # N_2 C_R C_R C_R
1311   4   541 542 544 551     # N_2 C_R C_R C_R
1312   5   543 542 544 545     # H_ C_R C_R C_R
1313   5   543 542 544 551     # H_ C_R C_R C_R
1314   6   542 544 545 556     # C_R C_R C_R C_R
1315   7   542 544 545 558     # C_R C_R C_R H_
1316   6   551 544 545 556     # C_R C_R C_R C_R
1317   7   551 544 545 558     # C_R C_R C_R H_
1318   7   542 544 551 546     # C_R C_R C_R H_
1319   6   542 544 551 550     # C_R C_R C_R C_R
1320   7   545 544 551 546     # C_R C_R C_R H_
1321   6   545 544 551 550     # C_R C_R C_R C_R
1322   6   544 545 556 554     # C_R C_R C_R C_R
1323   6   544 545 556 557     # C_R C_R C_R C_R
1324   5   558 545 556 554     # H_ C_R C_R C_R
1325   5   558 545 556 557     # H_ C_R C_R C_R
1326   1   565 547 548 549     # N_2 N_2 C_R H_
1327   2   565 547 548 550     # N_2 N_2 C_R C_R
1328   3   548 547 565 566     # C_R N_2 N_2 C_R
1329   4   547 548 550 551     # N_2 C_R C_R C_R
1330   4   547 548 550 557     # N_2 C_R C_R C_R
1331   5   549 548 550 551     # H_ C_R C_R C_R
1332   5   549 548 550 557     # H_ C_R C_R C_R
1333   6   548 550 551 544     # C_R C_R C_R C_R
1334   7   548 550 551 546     # C_R C_R C_R H_
1335   6   557 550 551 544     # C_R C_R C_R C_R
1336   7   557 550 551 546     # C_R C_R C_R H_
1337   7   548 550 557 552     # C_R C_R C_R H_
1338   6   548 550 557 556     # C_R C_R C_R C_R
1339   7   551 550 557 552     # C_R C_R C_R H_
1340   6   551 550 557 556     # C_R C_R C_R C_R
1341   1   499 553 554 555     # N_2 N_2 C_R H_
1342   2   499 553 554 556     # N_2 N_2 C_R C_R
1343   4   553 554 556 545     # N_2 C_R C_R C_R
1344   4   553 554 556 557     # N_2 C_R C_R C_R
1345   5   555 554 556 545     # H_ C_R C_R C_R
1346   5   555 554 556 557     # H_ C_R C_R C_R
1347   6   545 556 557 550     # C_R C_R C_R C_R
1348   7   545 556 557 552     # C_R C_R C_R H_
1349   6   554 556 557 550     # C_R C_R C_R C_R
1350   7   554 556 557 552     # C_R C_R C_R H_
1351   1   433 559 560 561     # N_2 N_2 C_R H_
1352   2   433 559 560 562     # N_2 N_2 C_R C_R
1353   4   559 560 562 563     # N_2 C_R C_R C_R
1354   4   559 560 562 569     # N_2 C_R C_R C_R
1355   5   561 560 562 563     # H_ C_R C_R C_R
1356   5   561 560 562 569     # H_ C_R C_R C_R
1357   6   560 562 563 574     # C_R C_R C_R C_R
1358   7   560 562 563 576     # C_R C_R C_R H_
1359   6   569 562 563 574     # C_R C_R C_R C_R
1360   7   569 562 563 576     # C_R C_R C_R H_
1361   7   560 562 569 564     # C_R C_R C_R H_
1362   6   560 562 569 568     # C_R C_R C_R C_R
1363   7   563 562 569 564     # C_R C_R C_R H_
1364   6   563 562 569 568     # C_R C_R C_R C_R
1365   6   562 563 574 572     # C_R C_R C_R C_R
1366   6   562 563 574 575     # C_R C_R C_R C_R
1367   5   576 563 574 572     # H_ C_R C_R C_R
1368   5   576 563 574 575     # H_ C_R C_R C_R
1369   1   547 565 566 567     # N_2 N_2 C_R H_
1370   2   547 565 566 568     # N_2 N_2 C_R C_R
1371   4   565 566 568 569     # N_2 C_R C_R C_R
1372   4   565 566 568 575     # N_2 C_R C_R C_R
1373   5   567 566 568 569     # H_ C_R C_R C_R
1374   5   567 566 568 575     # H_ C_R C_R C_R
1375   6   566 568 569 562     # C_R C_R C_R C_R
1376   7   566 568 569 564     # C_R C_R C_R H_
1377   6   575 568 569 562     # C_R C_R C_R C_R
1378   7   575 568 569 564     # C_R C_R C_R H_
1379   7   566 568 575 570     # C_R C_R C_R H_
1380   6   566 568 575 574     # C_R C_R C_R C_R
1381   7   569 568 575 570     # C_R C_R C_R H_
1382   6   569 568 575 574     # C_R C_R C_R C_R
1383   1   481 571 572 573     # N_2 N_2 C_R H_
1384   2   481 571 572 574     # N_2 N_2 C_R C_R
1385   4   571 572 574 563     # N_2 C_R C_R C_R
1386   4   571 572 574 575     # N_2 C_R C_R C_R
1387   5   573 572 574 563     # H_ C_R C_R C_R
1388   5   573 572 574 575     # H_ C_R C_R C_R
1389   6   563 574 575 568     # C_R C_R C_R C_R
1390   7   563 574 575 570     # C_R C_R C_R H_
1391   6   572 574 575 568     # C_R C_R C_R C_R
1392   7   572 574 575 570     # C_R C_R C_R H_
1393   1   703 577 578 579     # N_2 N_2 C_R H_
1394   2   703 577 578 580     # N_2 N_2 C_R C_R
1395   3   578 577 703 704     # C_R N_2 N_2 C_R
1396   4   577 578 580 581     # N_2 C_R C_R C_R
1397   4   577 578 580 587     # N_2 C_R C_R C_R
1398   5   579 578 580 581     # H_ C_R C_R C_R
1399   5   579 578 580 587     # H_ C_R C_R C_R
1400   6   578 580 581 592     # C_R C_R C_R C_R
1401   7   578 580 581 594     # C_R C_R C_R H_
1402   6   587 580 581 592     # C_R C_R C_R C_R
1403   7   587 580 581 594     # C_R C_R C_R H_
1404   7   578 580 587 582     # C_R C_R C_R H_
1405   6   578 580 587 586     # C_R C_R C_R C_R
1406   7   581 580 587 582     # C_R C_R C_R H_
1407   6   581 580 587 586     # C_R C_R C_R C_R
1408   6   580 581 592 590     # C_R C_R C_R C_R
1409   6   580 581 592 593     # C_R C_R C_R C_R
1410   5   594 581 592 590     # H_ C_R C_R C_R
1411   5   594 581 592 593     # H_ C_R C_R C_R
1412   1   601 583 584 585     # N_2 N_2 C_R H_
1413   2   601 583 584 586     # N_2 N_2 C_R C_R
1414   3   584 583 601 602     # C_R N_2 N_2 C_R
1415   4   583 584 586 587     # N_2 C_R C_R C_R
1416   4   583 584 586 593     # N_2 C_R C_R C_R
1417   5   585 584 586 587     # H_ C_R C_R C_R
1418   5   585 584 586 593     # H_ C_R C_R C_R
1419   6   584 586 587 580     # C_R C_R C_R C_R
1420   7   584 586 587 582     # C_R C_R C_R H_
1421   6   593 586 587 580     # C_R C_R C_R C_R
1422   7   593 586 587 582     # C_R C_R C_R H_
1423   7   584 586 593 588     # C_R C_R C_R H_
1424   6   584 586 593 592     # C_R C_R C_R C_R
1425   7   587 586 593 588     # C_R C_R C_R H_
1426   6   587 586 593 592     # C_R C_R C_R C_R
1427   1   679 589 590 591     # N_2 N_2 C_R H_
1428   2   679 589 590 592     # N_2 N_2 C_R C_R
1429   3   590 589 679 680     # C_R N_2 N_2 C_R
1430   4   589 590 592 581     # N_2 C_R C_R C_R
1431   4   589 590 592 593     # N_2 C_R C_R C_R
1432   5   591 590 592 581     # H_ C_R C_R C_R
1433   5   591 590 592 593     # H_ C_R C_R C_R
1434   6   581 592 593 586     # C_R C_R C_R C_R
1435   7   581 592 593 588     # C_R C_R C_R H_
1436   6   590 592 593 586     # C_R C_R C_R C_R
1437   7   590 592 593 588     # C_R C_R C_R H_
1438   1   613 595 596 597     # N_2 N_2 C_R H_
1439   2   613 595 596 598     # N_2 N_2 C_R C_R
1440   3   596 595 613 614     # C_R N_2 N_2 C_R
1441   4   595 596 598 599     # N_2 C_R C_R C_R
1442   4   595 596 598 605     # N_2 C_R C_R C_R
1443   5   597 596 598 599     # H_ C_R C_R C_R
1444   5   597 596 598 605     # H_ C_R C_R C_R
1445   6   596 598 599 610     # C_R C_R C_R C_R
1446   7   596 598 599 612     # C_R C_R C_R H_
1447   6   605 598 599 610     # C_R C_R C_R C_R
1448   7   605 598 599 612     # C_R C_R C_R H_
1449   7   596 598 605 600     # C_R C_R C_R H_
1450   6   596 598 605 604     # C_R C_R C_R C_R
1451   7   599 598 605 600     # C_R C_R C_R H_
1452   6   599 598 605 604     # C_R C_R C_R C_R
1453   6   598 599 610 608     # C_R C_R C_R C_R
1454   6   598 599 610 611     # C_R C_R C_R C_R
1455   5   612 599 610 608     # H_ C_R C_R C_R
1456   5   612 599 610 611     # H_ C_R C_R C_R
1457   1   583 601 602 603     # N_2 N_2 C_R H_
1458   2   583 601 602 604     # N_2 N_2 C_R C_R
1459   4   601 602 604 605     # N_2 C_R C_R C_R
1460   4   601 602 604 611     # N_2 C_R C_R C_R
1461   5   603 602 604 605     # H_ C_R C_R C_R
1462   5   603 602 604 611     # H_ C_R C_R C_R
1463   6   602 604 605 598     # C_R C_R C_R C_R
1464   7   602 604 605 600     # C_R C_R C_R H_
1465   6   611 604 605 598     # C_R C_R C_R C_R
1466   7   611 604 605 600     # C_R C_R C_R H_
1467   7   602 604 611 606     # C_R C_R C_R H_
1468   6   602 604 611 610     # C_R C_R C_R C_R
1469   7   605 604 611 606     # C_R C_R C_R H_
1470   6   605 604 611 610     # C_R C_R C_R C_R
1471   1   661 607 608 609     # N_2 N_2 C_R H_
1472   2   661 607 608 610     # N_2 N_2 C_R C_R
1473   3   608 607 661 662     # C_R N_2 N_2 C_R
1474   4   607 608 610 599     # N_2 C_R C_R C_R
1475   4   607 608 610 611     # N_2 C_R C_R C_R
1476   5   609 608 610 599     # H_ C_R C_R C_R
1477   5   609 608 610 611     # H_ C_R C_R C_R
1478   6   599 610 611 604     # C_R C_R C_R C_R
1479   7   599 610 611 606     # C_R C_R C_R H_
1480   6   608 610 611 604     # C_R C_R C_R C_R
1481   7   608 610 611 606     # C_R C_R C_R H_
1482   1   595 613 614 615     # N_2 N_2 C_R H_
1483   2   595 613 614 616     # N_2 N_2 C_R C_R
1484   4   613 614 616 617     # N_2 C_R C_R C_R
1485   4   613 614 616 623     # N_2 C_R C_R C_R
1486   5   615 614 616 617     # H_ C_R C_R C_R
1487   5   615 614 616 623     # H_ C_R C_R C_R
1488   6   614 616 617 628     # C_R C_R C_R C_R
1489   7   614 616 617 630     # C_R C_R C_R H_
1490   6   623 616 617 628     # C_R C_R C_R C_R
1491   7   623 616 617 630     # C_R C_R C_R H_
1492   7   614 616 623 618     # C_R C_R C_R H_
1493   6   614 616 623 622     # C_R C_R C_R C_R
1494   7   617 616 623 618     # C_R C_R C_R H_
1495   6   617 616 623 622     # C_R C_R C_R C_R
1496   6   616 617 628 626     # C_R C_R C_R C_R
1497   6   616 617 628 629     # C_R C_R C_R C_R
1498   5   630 617 628 626     # H_ C_R C_R C_R
1499   5   630 617 628 629     # H_ C_R C_R C_R
1500   1   637 619 620 621     # N_2 N_2 C_R H_
1501   2   637 619 620 622     # N_2 N_2 C_R C_R
1502   3   620 619 637 638     # C_R N_2 N_2 C_R
1503   4   619 620 622 623     # N_2 C_R C_R C_R
1504   4   619 620 622 629     # N_2 C_R C_R C_R
1505   5   621 620 622 623     # H_ C_R C_R C_R
1506   5   621 620 622 629     # H_ C_R C_R C_R
1507   6   620 622 623 616     # C_R C_R C_R C_R
1508   7   620 622 623 618     # C_R C_R C_R H_
1509   6   629 622 623 616     # C_R C_R C_R C_R
1510   7   629 622 623 618     # C_R C_R C_R H_
1511   7   620 622 629 624     # C_R C_R C_R H_
1512   6   620 622 629 628     # C_R C_R C_R C_R
1513   7   623 622 629 624     # C_R C_R C_R H_
1514   6   623 622 629 628     # C_R C_R C_R C_R
1515   1   715 625 626 627     # N_2 N_2 C_R H_
1516   2   715 625 626 628     # N_2 N_2 C_R C_R
1517   3   626 625 715 716     # C_R N_2 N_2 C_R
1518   4   625 626 628 617     # N_2 C_R C_R C_R
1519   4   625 626 628 629     # N_2 C_R C_R C_R
1520   5   627 626 628 617     # H_ C_R C_R C_R
1521   5   627 626 628 629     # H_ C_R C_R C_R
1522   6   617 628 629 622     # C_R C_R C_R C_R
1523   7   617 628 629 624     # C_R C_R C_R H_
1524   6   626 628 629 622     # C_R C_R C_R C_R
1525   7   626 628 629 624     # C_R C_R C_R H_
1526   1   649 631 632 633     # N_2 N_2 C_R H_
1527   2   649 631 632 634     # N_2 N_2 C_R C_R
1528   3   632 631 649 650     # C_R N_2 N_2 C_R
1529   4   631 632 634 635     # N_2 C_R C_R C_R
1530   4   631 632 634 641     # N_2 C_R C_R C_R
1531   5   633 632 634 635     # H_ C_R C_R C_R
1532   5   633 632 634 641     # H_ C_R C_R C_R
1533   6   632 634 635 646     # C_R C_R C_R C_R
1534   7   632 634 635 648     # C_R C_R C_R H_
1535   6   641 634 635 646     # C_R C_R C_R C_R
1536   7   641 634 635 648     # C_R C_R C_R H_
1537   7   632 634 641 636     # C_R C_R C_R H_
1538   6   632 634 641 640     # C_R C_R C_R C_R
1539   7   635 634 641 636     # C_R C_R C_R H_
1540   6   635 634 641 640     # C_R C_R C_R C_R
1541   6   634 635 646 644     # C_R C_R C_R C_R
1542   6   634 635 646 647     # C_R C_R C_R C_R
1543   5   648 635 646 644     # H_ C_R C_R C_R
1544   5   648 635 646 647     # H_ C_R C_R C_R
1545   1   619 637 638 639     # N_2 N_2 C_R H_
1546   2   619 637 638 640     # N_2 N_2 C_R C_R
1547   4   637 638 640 641     # N_2 C_R C_R C_R
1548   4   637 638 640 647     # N_2 C_R C_R C_R
1549   5   639 638 640 641     # H_ C_R C_R C_R
1550   5   639 638 640 647     # H_ C_R C_R C_R
1551   6   638 640 641 634     # C_R C_R C_R C_R
1552   7   638 640 641 636     # C_R C_R C_R H_
1553   6   647 640 641 634     # C_R C_R C_R C_R
1554   7   647 640 641 636     # C_R C_R C_R H_
1555   7   638 640 647 642     # C_R C_R C_R H_
1556   6   638 640 647 646     # C_R C_R C_R C_R
1557   7   641 640 647 642     # C_R C_R C_R H_
1558   6   641 640 647 646     # C_R C_R C_R C_R
1559   1   697 643 644 645     # N_2 N_2 C_R H_
1560   2   697 643 644 646     # N_2 N_2 C_R C_R
1561   3   644 643 697 698     # C_R N_2 N_2 C_R
1562   4   643 644 646 635     # N_2 C_R C_R C_R
1563   4   643 644 646 647     # N_2 C_R C_R C_R
1564   5   645 644 646 635     # H_ C_R C_R C_R
1565   5   645 644 646 647     # H_ C_R C_R C_R
1566   6   635 646 647 640     # C_R C_R C_R C_R
1567   7   635 646 647 642     # C_R C_R C_R H_
1568   6   644 646 647 640     # C_R C_R C_R C_R
1569   7   644 646 647 642     # C_R C_R C_R H_
1570   1   631 649 650 651     # N_2 N_2 C_R H_
1571   2   631 649 650 652     # N_2 N_2 C_R C_R
1572   4   649 650 652 653     # N_2 C_R C_R C_R
1573   4   649 650 652 659     # N_2 C_R C_R C_R
1574   5   651 650 652 653     # H_ C_R C_R C_R
1575   5   651 650 652 659     # H_ C_R C_R C_R
1576   6   650 652 653 664     # C_R C_R C_R C_R
1577   7   650 652 653 666     # C_R C_R C_R H_
1578   6   659 652 653 664     # C_R C_R C_R C_R
1579   7   659 652 653 666     # C_R C_R C_R H_
1580   7   650 652 659 654     # C_R C_R C_R H_
1581   6   650 652 659 658     # C_R C_R C_R C_R
1582   7   653 652 659 654     # C_R C_R C_R H_
1583   6   653 652 659 658     # C_R C_R C_R C_R
1584   6   652 653 664 662     # C_R C_R C_R C_R
1585   6   652 653 664 665     # C_R C_R C_R C_R
1586   5   666 653 664 662     # H_ C_R C_R C_R
1587   5   666 653 664 665     # H_ C_R C_R C_R
1588   1   673 655 656 657     # N_2 N_2 C_R H_
1589   2   673 655 656 658     # N_2 N_2 C_R C_R
1590   3   656 655 673 674     # C_R N_2 N_2 C_R
1591   4   655 656 658 659     # N_2 C_R C_R C_R
1592   4   655 656 658 665     # N_2 C_R C_R C_R
1593   5   657 656 658 659     # H_ C_R C_R C_R
1594   5   657 656 658 665     # H_ C_R C_R C_R
1595   6   656 658 659 652     # C_R C_R C_R C_R
1596   7   656 658 659 654     # C_R C_R C_R H_
1597   6   665 658 659 652     # C_R C_R C_R C_R
1598   7   665 658 659 654     # C_R C_R C_R H_
1599   7   656 658 665 660     # C_R C_R C_R H_
1600   6   656 658 665 664     # C_R C_R C_R C_R
1601   7   659 658 665 660     # C_R C_R C_R H_
1602   6   659 658 665 664     # C_R C_R C_R C_R
1603   1   607 661 662 663     # N_2 N_2 C_R H_
1604   2   607 661 662 664     # N_2 N_2 C_R C_R
1605   4   661 662 664 653     # N_2 C_R C_R C_R
1606   4   661 662 664 665     # N_2 C_R C_R C_R
1607   5   663 662 664 653     # H_ C_R C_R C_R
1608   5   663 662 664 665     # H_ C_R C_R C_R
1609   6   653 664 665 658     # C_R C_R C_R C_R
1610   7   653 664 665 660     # C_R C_R C_R H_
1611   6   662 664 665 658     # C_R C_R C_R C_R
1612   7   662 664 665 660     # C_R C_R C_R H_
1613   1   685 667 668 669     # N_2 N_2 C_R H_
1614   2   685 667 668 670     # N_2 N_2 C_R C_R
1615   3   668 667 685 686     # C_R N_2 N_2 C_R
1616   4   667 668 670 671     # N_2 C_R C_R C_R
1617   4   667 668 670 677     # N_2 C_R C_R C_R
1618   5   669 668 670 671     # H_ C_R C_R C_R
1619   5   669 668 670 677     # H_ C_R C_R C_R
1620   6   668 670 671 682     # C_R C_R C_R C_R
1621   7   668 670 671 684     # C_R C_R C_R H_
1622   6   677 670 671 682     # C_R C_R C_R C_R
1623   7   677 670 671 684     # C_R C_R C_R H_
1624   7   668 670 677 672     # C_R C_R C_R H_
1625   6   668 670 677 676     # C_R C_R C_R C_R
1626   7   671 670 677 672     # C_R C_R C_R H_
1627   6   671 670 677 676     # C_R C_R C_R C_R
1628   6   670 671 682 680     # C_R C_R C_R C_R
1629   6   670 671 682 683     # C_R C_R C_R C_R
1630   5   684 671 682 680     # H_ C_R C_R C_R
1631   5   684 671 682 683     # H_ C_R C_R C_R
1632   1   655 673 674 675     # N_2 N_2 C_R H_
1633   2   655 673 674 676     # N_2 N_2 C_R C_R
1634   4   673 674 676 677     # N_2 C_R C_R C_R
1635   4   673 674 676 683     # N_2 C_R C_R C_R
1636   5   675 674 676 677     # H_ C_R C_R C_R
1637   5   675 674 676 683     # H_ C_R C_R C_R
1638   6   674 676 677 670     # C_R C_R C_R C_R
1639   7   674 676 677 672     # C_R C_R C_R H_
1640   6   683 676 677 670     # C_R C_R C_R C_R
1641   7   683 676 677 672     # C_R C_R C_R H_
1642   7   674 676 683 678     # C_R C_R C_R H_
1643   6   674 676 683 682     # C_R C_R C_R C_R
1644   7   677 676 683 678     # C_R C_R C_R H_
1645   6   677 676 683 682     # C_R C_R C_R C_R
1646   1   589 679 680 681     # N_2 N_2 C_R H_
1647   2   589 679 680 682     # N_2 N_2 C_R C_R
1648   4   679 680 682 671     # N_2 C_R C_R C_R
1649   4   679 680 682 683     # N_2 C_R C_R C_R
1650   5   681 680 682 671     # H_ C_R C_R C_R
1651   5   681 680 682 683     # H_ C_R C_R C_R
1652   6   671 682 683 676     # C_R C_R C_R C_R
1653   7   671 682 683 678     # C_R C_R C_R H_
1654   6   680 682 683 676     # C_R C_R C_R C_R
1655   7   680 682 683 678     # C_R C_R C_R H_
1656   1   667 685 686 687     # N_2 N_2 C_R H_
1657   2   667 685 686 688     # N_2 N_2 C_R C_R
1658   4   685 686 688 689     # N_2 C_R C_R C_R
1659   4   685 686 688 695     # N_2 C_R C_R C_R
1660   5   687 686 688 689     # H_ C_R C_R C_R
1661   5   687 686 688 695     # H_ C_R C_R C_R
1662   6   686 688 689 700     # C_R C_R C_R C_R
1663   7   686 688 689 702     # C_R C_R C_R H_
1664   6   695 688 689 700     # C_R C_R C_R C_R
1665   7   695 688 689 702     # C_R C_R C_R H_
1666   7   686 688 695 690     # C_R C_R C_R H_
1667   6   686 688 695 694     # C_R C_R C_R C_R
1668   7   689 688 695 690     # C_R C_R C_R H_
1669   6   689 688 695 694     # C_R C_R C_R C_R
1670   6   688 689 700 698     # C_R C_R C_R C_R
1671   6   688 689 700 701     # C_R C_R C_R C_R
1672   5   702 689 700 698     # H_ C_R C_R C_R
1673   5   702 689 700 701     # H_ C_R C_R C_R
1674   1   709 691 692 693     # N_2 N_2 C_R H_
1675   2   709 691 692 694     # N_2 N_2 C_R C_R
1676   3   692 691 709 710     # C_R N_2 N_2 C_R
1677   4   691 692 694 695     # N_2 C_R C_R C_R
1678   4   691 692 694 701     # N_2 C_R C_R C_R
1679   5   693 692 694 695     # H_ C_R C_R C_R
1680   5   693 692 694 701     # H_ C_R C_R C_R
1681   6   692 694 695 688     # C_R C_R C_R C_R
1682   7   692 694 695 690     # C_R C_R C_R H_
1683   6   701 694 695 688     # C_R C_R C_R C_R
1684   7   701 694 695 690     # C_R C_R C_R H_
1685   7   692 694 701 696     # C_R C_R C_R H_
1686   6   692 694 701 700     # C_R C_R C_R C_R
1687   7   695 694 701 696     # C_R C_R C_R H_
1688   6   695 694 701 700     # C_R C_R C_R C_R
1689   1   643 697 698 699     # N_2 N_2 C_R H_
1690   2   643 697 698 700     # N_2 N_2 C_R C_R
1691   4   697 698 700 689     # N_2 C_R C_R C_R
1692   4   697 698 700 701     # N_2 C_R C_R C_R
1693   5   699 698 700 689     # H_ C_R C_R C_R
1694   5   699 698 700 701     # H_ C_R C_R C_R
1695   6   689 700 701 694     # C_R C_R C_R C_R
1696   7   689 700 701 696     # C_R C_R C_R H_
1697   6   698 700 701 694     # C_R C_R C_R C_R
1698   7   698 700 701 696     # C_R C_R C_R H_
1699   1   577 703 704 705     # N_2 N_2 C_R H_
1700   2   577 703 704 706     # N_2 N_2 C_R C_R
1701   4   703 704 706 707     # N_2 C_R C_R C_R
1702   4   703 704 706 713     # N_2 C_R C_R C_R
1703   5   705 704 706 707     # H_ C_R C_R C_R
1704   5   705 704 706 713     # H_ C_R C_R C_R
1705   6   704 706 707 718     # C_R C_R C_R C_R
1706   7   704 706 707 720     # C_R C_R C_R H_
1707   6   713 706 707 718     # C_R C_R C_R C_R
1708   7   713 706 707 720     # C_R C_R C_R H_
1709   7   704 706 713 708     # C_R C_R C_R H_
1710   6   704 706 713 712     # C_R C_R C_R C_R
1711   7   707 706 713 708     # C_R C_R C_R H_
1712   6   707 706 713 712     # C_R C_R C_R C_R
1713   6   706 707 718 716     # C_R C_R C_R C_R
1714   6   706 707 718 719     # C_R C_R C_R C_R
1715   5   720 707 718 716     # H_ C_R C_R C_R
1716   5   720 707 718 719     # H_ C_R C_R C_R
1717   1   691 709 710 711     # N_2 N_2 C_R H_
1718   2   691 709 710 712     # N_2 N_2 C_R C_R
1719   4   709 710 712 713     # N_2 C_R C_R C_R
1720   4   709 710 712 719     # N_2 C_R C_R C_R
1721   5   711 710 712 713     # H_ C_R C_R C_R
1722   5   711 710 712 719     # H_ C_R C_R C_R
1723   6   710 712 713 706     # C_R C_R C_R C_R
1724   7   710 712 713 708     # C_R C_R C_R H_
1725   6   719 712 713 706     # C_R C_R C_R C_R
1726   7   719 712 713 708     # C_R C_R C_R H_
1727   7   710 712 719 714     # C_R C_R C_R H_
1728   6   710 712 719 718     # C_R C_R C_R C_R
1729   7   713 712 719 714     # C_R C_R C_R H_
1730   6   713 712 719 718     # C_R C_R C_R C_R
1731   1   625 715 716 717     # N_2 N_2 C_R H_
1732   2   625 715 716 718     # N_2 N_2 C_R C_R
1733   4   715 716 718 707     # N_2 C_R C_R C_R
1734   4   715 716 718 719     # N_2 C_R C_R C_R
1735   5   717 716 718 707     # H_ C_R C_R C_R
1736   5   717 716 718 719     # H_ C_R C_R C_R
1737   6   707 718 719 712     # C_R C_R C_R C_R
1738   7   707 718 719 714     # C_R C_R C_R H_
1739   6   716 718 719 712     # C_R C_R C_R C_R
1740   7   716 718 719 714     # C_R C_R C_R H_

Impropers

1   1   2 1 4 3     # C_R N_2 C_R H_
2   2   4 2 5 11     # C_R C_R C_R C_R
3   3   5 4 16 18     # C_R C_R C_R H_
4   1   8 7 10 9     # C_R N_2 C_R H_
5   2   10 8 11 17     # C_R C_R C_R C_R
6   3   11 4 10 6     # C_R C_R C_R H_
7   1   14 13 16 15     # C_R N_2 C_R H_
8   2   16 5 14 17     # C_R C_R C_R C_R
9   3   17 10 16 12     # C_R C_R C_R H_
10   1   20 19 22 21     # C_R N_2 C_R H_
11   2   22 20 23 29     # C_R C_R C_R C_R
12   3   23 22 34 36     # C_R C_R C_R H_
13   1   26 25 28 27     # C_R N_2 C_R H_
14   2   28 26 29 35     # C_R C_R C_R C_R
15   3   29 22 28 24     # C_R C_R C_R H_
16   1   32 31 34 33     # C_R N_2 C_R H_
17   2   34 23 32 35     # C_R C_R C_R C_R
18   3   35 28 34 30     # C_R C_R C_R H_
19   1   38 37 40 39     # C_R N_2 C_R H_
20   2   40 38 41 47     # C_R C_R C_R C_R
21   3   41 40 52 54     # C_R C_R C_R H_
22   1   44 43 46 45     # C_R N_2 C_R H_
23   2   46 44 47 53     # C_R C_R C_R C_R
24   3   47 40 46 42     # C_R C_R C_R H_
25   1   50 49 52 51     # C_R N_2 C_R H_
26   2   52 41 50 53     # C_R C_R C_R C_R
27   3   53 46 52 48     # C_R C_R C_R H_
28   1   56 55 58 57     # C_R N_2 C_R H_
29   2   58 56 59 65     # C_R C_R C_R C_R
30   3   59 58 70 72     # C_R C_R C_R H_
31   1   62 61 64 63     # C_R N_2 C_R H_
32   2   64 62 65 71     # C_R C_R C_R C_R
33   3   65 58 64 60     # C_R C_R C_R H_
34   1   68 67 70 69     # C_R N_2 C_R H_
35   2   70 59 68 71     # C_R C_R C_R C_R
36   3   71 64 70 66     # C_R C_R C_R H_
37   1   74 73 76 75     # C_R N_2 C_R H_
38   2   76 74 77 83     # C_R C_R C_R C_R
39   3   77 76 88 90     # C_R C_R C_R H_
40   1   80 79 82 81     # C_R N_2 C_R H_
41   2   82 80 83 89     # C_R C_R C_R C_R
42   3   83 76 82 78     # C_R C_R C_R H_
43   1   86 85 88 87     # C_R N_2 C_R H_
44   2   88 77 86 89     # C_R C_R C_R C_R
45   3   89 82 88 84     # C_R C_R C_R H_
46   1   92 91 94 93     # C_R N_2 C_R H_
47   2   94 92 95 101     # C_R C_R C_R C_R
48   3   95 94 106 108     # C_R C_R C_R H_
49   1   98 97 100 99     # C_R N_2 C_R H_
50   2   100 98 101 107     # C_R C_R C_R C_R
51   3   101 94 100 96     # C_R C_R C_R H_
52   1   104 103 106 105     # C_R N_2 C_R H_
53   2   106 95 104 107     # C_R C_R C_R C_R
54   3   107 100 106 102     # C_R C_R C_R H_
55   1   110 109 112 111     # C_R N_2 C_R H_
56   2   112 110 113 119     # C_R C_R C_R C_R
57   3   113 112 124 126     # C_R C_R C_R H_
58   1   116 115 118 117     # C_R N_2 C_R H_
59   2   118 116 119 125     # C_R C_R C_R C_R
60   3   119 112 118 114     # C_R C_R C_R H_
61   1   122 121 124 123     # C_R N_2 C_R H_
62   2   124 113 122 125     # C_R C_R C_R C_R
63   3   125 118 124 120     # C_R C_R C_R H_
64   1   128 127 130 129     # C_R N_2 C_R H_
65   2   130 128 131 137     # C_R C_R C_R C_R
66   3   131 130 142 144     # C_R C_R C_R H_
67   1   134 133 136 135     # C_R N_2 C_R H_
68   2   136 134 137 143     # C_R C_R C_R C_R
69   3   137 130 136 132     # C_R C_R C_R H_
70   1   140 139 142 141     # C_R N_2 C_R H_
71   2   142 131 140 143     # C_R C_R C_R C_R
72   3   143 136 142 138     # C_R C_R C_R H_
73   1   146 145 148 147     # C_R N_2 C_R H_
74   2   148 146 149 155     # C_R C_R C_R C_R
75   3   149 148 160 162     # C_R C_R C_R H_
76   1   152 151 154 153     # C_R N_2 C_R H_
77   2   154 152 155 161     # C_R C_R C_R C_R
78   3   155 148 154 150     # C_R C_R C_R H_
79   1   158 157 160 159     # C_R N_2 C_R H_
80   2   160 149 158 161     # C_R C_R C_R C_R
81   3   161 154 160 156     # C_R C_R C_R H_
82   1   164 163 166 165     # C_R N_2 C_R H_
83   2   166 164 167 173     # C_R C_R C_R C_R
84   3   167 166 178 180     # C_R C_R C_R H_
85   1   170 169 172 171     # C_R N_2 C_R H_
86   2   172 170 173 179     # C_R C_R C_R C_R
87   3   173 166 172 168     # C_R C_R C_R H_
88   1   176 175 178 177     # C_R N_2 C_R H_
89   2   178 167 176 179     # C_R C_R C_R C_R
90   3   179 172 178 174     # C_R C_R C_R H_
91   1   182 181 184 183     # C_R N_2 C_R H_
92   2   184 182 185 191     # C_R C_R C_R C_R
93   3   185 184 196 198     # C_R C_R C_R H_
94   1   188 187 190 189     # C_R N_2 C_R H_
95   2   190 188 191 197     # C_R C_R C_R C_R
96   3   191 184 190 186     # C_R C_R C_R H_
97   1   194 193 196 195     # C_R N_2 C_R H_
98   2   196 185 194 197     # C_R C_R C_R C_R
99   3   197 190 196 192     # C_R C_R C_R H_
100   1   200 199 202 201     # C_R N_2 C_R H_
101   2   202 200 203 209     # C_R C_R C_R C_R
102   3   203 202 214 216     # C_R C_R C_R H_
103   1   206 205 208 207     # C_R N_2 C_R H_
104   2   208 206 209 215     # C_R C_R C_R C_R
105   3   209 202 208 204     # C_R C_R C_R H_
106   1   212 211 214 213     # C_R N_2 C_R H_
107   2   214 203 212 215     # C_R C_R C_R C_R
108   3   215 208 214 210     # C_R C_R C_R H_
109   1   218 217 220 219     # C_R N_2 C_R H_
110   2   220 218 221 227     # C_R C_R C_R C_R
111   3   221 220 232 234     # C_R C_R C_R H_
112   1   224 223 226 225     # C_R N_2 C_R H_
113   2   226 224 227 233     # C_R C_R C_R C_R
114   3   227 220 226 222     # C_R C_R C_R H_
115   1   230 229 232 231     # C_R N_2 C_R H_
116   2   232 221 230 233     # C_R C_R C_R C_R
117   3   233 226 232 228     # C_R C_R C_R H_
118   1   236 235 238 237     # C_R N_2 C_R H_
119   2   238 236 239 245     # C_R C_R C_R C_R
120   3   239 238 250 252     # C_R C_R C_R H_
121   1   242 241 244 243     # C_R N_2 C_R H_
122   2   244 242 245 251     # C_R C_R C_R C_R
123   3   245 238 244 240     # C_R C_R C_R H_
124   1   248 247 250 249     # C_R N_2 C_R H_
125   2   250 239 248 251     # C_R C_R C_R C_R
126   3   251 244 250 246     # C_R C_R C_R H_
127   1   254 253 256 255     # C_R N_2 C_R H_
128   2   256 254 257 263     # C_R C_R C_R C_R
129   3   257 256 268 270     # C_R C_R C_R H_
130   1   260 259 262 261     # C_R N_2 C_R H_
131   2   262 260 263 269     # C_R C_R C_R C_R
132   3   263 256 262 258     # C_R C_R C_R H_
133   1   266 265 268 267     # C_R N_2 C_R H_
134   2   268 257 266 269     # C_R C_R C_R C_R
135   3   269 262 268 264     # C_R C_R C_R H_
136   1   272 271 274 273     # C_R N_2 C_R H_
137   2   274 272 275 281     # C_R C_R C_R C_R
138   3   275 274 286 288     # C_R C_R C_R H_
139   1   278 277 280 279     # C_R N_2 C_R H_
140   2   280 278 281 287     # C_R C_R C_R C_R
141   3   281 274 280 276     # C_R C_R C_R H_
142   1   284 283 286 285     # C_R N_2 C_R H_
143   2   286 275 284 287     # C_R C_R C_R C_R
144   3   287 280 286 282     # C_R C_R C_R H_
145   1   290 289 292 291     # C_R N_2 C_R H_
146   2   292 290 293 299     # C_R C_R C_R C_R
147   3   293 292 304 306     # C_R C_R C_R H_
148   1   296 295 298 297     # C_R N_2 C_R H_
149   2   298 296 299 305     # C_R C_R C_R C_R
150   3   299 292 298 294     # C_R C_R C_R H_
151   1   302 301 304 303     # C_R N_2 C_R H_
152   2   304 293 302 305     # C_R C_R C_R C_R
153   3   305 298 304 300     # C_R C_R C_R H_
154   1   308 307 310 309     # C_R N_2 C_R H_
155   2   310 308 311 317     # C_R C_R C_R C_R
156   3   311 310 322 324     # C_R C_R C_R H_
157   1   314 313 316 315     # C_R N_2 C_R H_
158   2   316 314 317 323     # C_R C_R C_R C_R
159   3   317 310 316 312     # C_R C_R C_R H_
160   1   320 319 322 321     # C_R N_2 C_R H_
161   2   322 311 320 323     # C_R C_R C_R C_R
162   3   323 316 322 318     # C_R C_R C_R H_
163   1   326 325 328 327     # C_R N_2 C_R H_
164   2   328 326 329 335     # C_R C_R C_R C_R
165   3   329 328 340 342     # C_R C_R C_R H_
166   1   332 331 334 333     # C_R N_2 C_R H_
167   2   334 332 335 341     # C_R C_R C_R C_R
168   3   335 328 334 330     # C_R C_R C_R H_
169   1   338 337 340 339     # C_R N_2 C_R H_
170   2   340 329 338 341     # C_R C_R C_R C_R
171   3   341 334 340 336     # C_R C_R C_R H_
172   1   344 343 346 345     # C_R N_2 C_R H_
173   2   346 344 347 353     # C_R C_R C_R C_R
174   3   347 346 358 360     # C_R C_R C_R H_
175   1   350 349 352 351     # C_R N_2 C_R H_
176   2   352 350 353 359     # C_R C_R C_R C_R
177   3   353 346 352 348     # C_R C_R C_R H_
178   1   356 355 358 357     # C_R N_2 C_R H_
179   2   358 347 356 359     # C_R C_R C_R C_R
180   3   359 352 358 354     # C_R C_R C_R H_
181   1   362 361 364 363     # C_R N_2 C_R H_
182   2   364 362 365 371     # C_R C_R C_R C_R
183   3   365 364 376 378     # C_R C_R C_R H_
184   1   368 367 370 369     # C_R N_2 C_R H_
185   2   370 368 371 377     # C_R C_R C_R C_R
186   3   371 364 370 366     # C_R C_R C_R H_
187   1   374 373 376 375     # C_R N_2 C_R H_
188   2   376 365 374 377     # C_R C_R C_R C_R
189   3   377 370 376 372     # C_R C_R C_R H_
190   1   380 379 382 381     # C_R N_2 C_R H_
191   2   382 380 383 389     # C_R C_R C_R C_R
192   3   383 382 394 396     # C_R C_R C_R H_
193   1   386 385 388 387     # C_R N_2 C_R H_
194   2   388 386 389 395     # C_R C_R C_R C_R
195   3   389 382 388 384     # C_R C_R C_R H_
196   1   392 391 394 393     # C_R N_2 C_R H_
197   2   394 383 392 395     # C_R C_R C_R C_R
198   3   395 388 394 390     # C_R C_R C_R H_
199   1   398 397 400 399     # C_R N_2 C_R H_
200   2   400 398 401 407     # C_R C_R C_R C_R
201   3   401 400 412 414     # C_R C_R C_R H_
202   1   404 403 406 405     # C_R N_2 C_R H_
203   2   406 404 407 413     # C_R C_R C_R C_R
204   3   407 400 406 402     # C_R C_R C_R H_
205   1   410 409 412 411     # C_R N_2 C_R H_
206   2   412 401 410 413     # C_R C_R C_R C_R
207   3   413 406 412 408     # C_R C_R C_R H_
208   1   416 415 418 417     # C_R N_2 C_R H_
209   2   418 416 419 425     # C_R C_R C_R C_R
210   3   419 418 430 432     # C_R C_R C_R H_
211   1   422 421 424 423     # C_R N_2 C_R H_
212   2   424 422 425 431     # C_R C_R C_R C_R
213   3   425 418 424 420     # C_R C_R C_R H_
214   1   428 427 430 429     # C_R N_2 C_R H_
215   2   430 419 428 431     # C_R C_R C_R C_R
216   3   431 424 430 426     # C_R C_R C_R H_
217   1   434 433 436 435     # C_R N_2 C_R H_
218   2   436 434 437 443     # C_R C_R C_R C_R
219   3   437 436 448 450     # C_R C_R C_R H_
220   1   440 439 442 441     # C_R N_2 C_R H_
221   2   442 440 443 449     # C_R C_R C_R C_R
222   3   443 436 442 438     # C_R C_R C_R H_
223   1   446 445 448 447     # C_R N_2 C_R H_
224   2   448 437 446 449     # C_R C_R C_R C_R
225   3   449 442 448 444     # C_R C_R C_R H_
226   1   452 451 454 453     # C_R N_2 C_R H_
227   2   454 452 455 461     # C_R C_R C_R C_R
228   3   455 454 466 468     # C_R C_R C_R H_
229   1   458 457 460 459     # C_R N_2 C_R H_
230   2   460 458 461 467     # C_R C_R C_R C_R
231   3   461 454 460 456     # C_R C_R C_R H_
232   1   464 463 466 465     # C_R N_2 C_R H_
233   2   466 455 464 467     # C_R C_R C_R C_R
234   3   467 460 466 462     # C_R C_R C_R H_
235   1   470 469 472 471     # C_R N_2 C_R H_
236   2   472 470 473 479     # C_R C_R C_R C_R
237   3   473 472 484 486     # C_R C_R C_R H_
238   1   476 475 478 477     # C_R N_2 C_R H_
239   2   478 476 479 485     # C_R C_R C_R C_R
240   3   479 472 478 474     # C_R C_R C_R H_
241   1   482 481 484 483     # C_R N_2 C_R H_
242   2   484 473 482 485     # C_R C_R C_R C_R
243   3   485 478 484 480     # C_R C_R C_R H_
244   1   488 487 490 489     # C_R N_2 C_R H_
245   2   490 488 491 497     # C_R C_R C_R C_R
246   3   491 490 502 504     # C_R C_R C_R H_
247   1   494 493 496 495     # C_R N_2 C_R H_
248   2   496 494 497 503     # C_R C_R C_R C_R
249   3   497 490 496 492     # C_R C_R C_R H_
250   1   500 499 502 501     # C_R N_2 C_R H_
251   2   502 491 500 503     # C_R C_R C_R C_R
252   3   503 496 502 498     # C_R C_R C_R H_
253   1   506 505 508 507     # C_R N_2 C_R H_
254   2   508 506 509 515     # C_R C_R C_R C_R
255   3   509 508 520 522     # C_R C_R C_R H_
256   1   512 511 514 513     # C_R N_2 C_R H_
257   2   514 512 515 521     # C_R C_R C_R C_R
258   3   515 508 514 510     # C_R C_R C_R H_
259   1   518 517 520 519     # C_R N_2 C_R H_
260   2   520 509 518 521     # C_R C_R C_R C_R
261   3   521 514 520 516     # C_R C_R C_R H_
262   1   524 523 526 525     # C_R N_2 C_R H_
263   2   526 524 527 533     # C_R C_R C_R C_R
264   3   527 526 538 540     # C_R C_R C_R H_
265   1   530 529 532 531     # C_R N_2 C_R H_
266   2   532 530 533 539     # C_R C_R C_R C_R
267   3   533 526 532 528     # C_R C_R C_R H_
268   1   536 535 538 537     # C_R N_2 C_R H_
269   2   538 527 536 539     # C_R C_R C_R C_R
270   3   539 532 538 534     # C_R C_R C_R H_
271   1   542 541 544 543     # C_R N_2 C_R H_
272   2   544 542 545 551     # C_R C_R C_R C_R
273   3   545 544 556 558     # C_R C_R C_R H_
274   1   548 547 550 549     # C_R N_2 C_R H_
275   2   550 548 551 557     # C_R C_R C_R C_R
276   3   551 544 550 546     # C_R C_R C_R H_
277   1   554 553 556 555     # C_R N_2 C_R H_
278   2   556 545 554 557     # C_R C_R C_R C_R
279   3   557 550 556 552     # C_R C_R C_R H_
280   1   560 559 562 561     # C_R N_2 C_R H_
281   2   562 560 563 569     # C_R C_R C_R C_R
282   3   563 562 574 576     # C_R C_R C_R H_
283   1   566 565 568 567     # C_R N_2 C_R H_
284   2   568 566 569 575     # C_R C_R C_R C_R
285   3   569 562 568 564     # C_R C_R C_R H_
286   1   572 571 574 573     # C_R N_2 C_R H_
287   2   574 563 572 575     # C_R C_R C_R C_R
288   3   575 568 574 570     # C_R C_R C_R H_
289   1   578 577 580 579     # C_R N_2 C_R H_
290   2   580 578 581 587     # C_R C_R C_R C_R
291   3   581 580 592 594     # C_R C_R C_R H_
292   1   584 583 586 585     # C_R N_2 C_R H_
293   2   586 584 587 593     # C_R C_R C_R C_R
294   3   587 580 586 582     # C_R C_R C_R H_
295   1   590 589 592 591     # C_R N_2 C_R H_
296   2   592 581 590 593     # C_R C_R C_R C_R
297   3   593 586 592 588     # C_R C_R C_R H_
298   1   596 595 598 597     # C_R N_2 C_R H_
299   2   598 596 599 605     # C_R C_R C_R C_R
300   3   599 598 610 612     # C_R C_R C_R H_
301   1   602 601 604 603     # C_R N_2 C_R H_
302   2   604 602 605 611     # C_R C_R C_R C_R
303   3   605 598 604 600     # C_R C_R C_R H_
304   1   608 607 610 609     # C_R N_2 C_R H_
305   2   610 599 608 611     # C_R C_R C_R C_R
306   3   611 604 610 606     # C_R C_R C_R H_
307   1   614 613 616 615     # C_R N_2 C_R H_
308   2   616 614 617 623     # C_R C_R C_R C_R
309   3   617 616 628 630     # C_R C_R C_R H_
310   1   620 619 622 621     # C_R N_2 C_R H_
311   2   622 620 623 629     # C_R C_R C_R C_R
312   3   623 616 622 618     # C_R C_R C_R H_
313   1   626 625 628 627     # C_R N_2 C_R H_
314   2   628 617 626 629     # C_R C_R C_R C_R
315   3   629 622 628 624     # C_R C_R C_R H_
316   1   632 631 634 633     # C_R N_2 C_R H_
317   2   634 632 635 641     # C_R C_R C_R C_R
318   3   635 634 646 648     # C_R C_R C_R H_
319   1   638 637 640 639     # C_R N_2 C_R H_
320   2   640 638 641 647     # C_R C_R C_R C_R
321   3   641 634 640 636     # C_R C_R C_R H_
322   1   644 643 646 645     # C_R N_2 C_R H_
323   2   646 635 644 647     # C_R C_R C_R C_R
324   3   647 640 646 642     # C_R C_R C_R H_
325   1   650 649 652 651     # C_R N_2 C_R H_
326   2   652 650 653 659     # C_R C_R C_R C_R
327   3   653 652 664 666     # C_R C_R C_R H_
328   1   656 655 658 657     # C_R N_2 C_R H_
329   2   658 656 659 665     # C_R C_R C_R C_R
330   3   659 652 658 654     # C_R C_R C_R H_
331   1   662 661 664 663     # C_R N_2 C_R H_
332   2   664 653 662 665     # C_R C_R C_R C_R
333   3   665 658 664 660     # C_R C_R C_R H_
334   1   668 667 670 669     # C_R N_2 C_R H_
335   2   670 668 671 677     # C_R C_R C_R C_R
336   3   671 670 682 684     # C_R C_R C_R H_
337   1   674 673 676 675     # C_R N_2 C_R H_
338   2   676 674 677 683     # C_R C_R C_R C_R
339   3   677 670 676 672     # C_R C_R C_R H_
340   1   680 679 682 681     # C_R N_2 C_R H_
341   2   682 671 680 683     # C_R C_R C_R C_R
342   3   683 676 682 678     # C_R C_R C_R H_
343   1   686 685 688 687     # C_R N_2 C_R H_
344   2   688 686 689 695     # C_R C_R C_R C_R
345   3   689 688 700 702     # C_R C_R C_R H_
346   1   692 691 694 693     # C_R N_2 C_R H_
347   2   694 692 695 701     # C_R C_R C_R C_R
348   3   695 688 694 690     # C_R C_R C_R H_
349   1   698 697 700 699     # C_R N_2 C_R H_
350   2   700 689 698 701     # C_R C_R C_R C_R
351   3   701 694 700 696     # C_R C_R C_R H_
352   1   704 703 706 705     # C_R N_2 C_R H_
353   2   706 704 707 713     # C_R C_R C_R C_R
354   3   707 706 718 720     # C_R C_R C_R H_
355   1   710 709 712 711     # C_R N_2 C_R H_
356   2   712 710 713 719     # C_R C_R C_R C_R
357   3   713 706 712 708     # C_R C_R C_R H_
358   1   716 715 718 717     # C_R N_2 C_R H_
359   2   718 707 716 719     # C_R C_R C_R C_R
360   3   719 712 718 714     # C_R C_R C_R H_
